%chk=paracetamol_tddft4.chk
%mem=4GB
%nprocshared=4
# td(nstates=10) b3lyp/6-311+g(d,p) scrf=(pcm,solvent=water)

Paracetamol TD-DFT UV-Vis prediction

0 1
O   3.995606  -0.243063  -0.000137
O  -2.507535  -1.453914  -0.000615
N  -1.549216   0.658578   0.000375
C  -0.162428   0.353009   0.000185
C   0.339720  -0.959215   0.000407
C   0.740581   1.433591  -0.000162
C   1.721851  -1.171765   0.000278
C   2.115472   1.217083  -0.000249
C   2.609544  -0.091861  -0.000034
C  -2.620630  -0.208312  -0.000114
C  -3.984896   0.458215   0.000049
H  -0.349579  -1.790510   0.000569
H   0.362940   2.453082  -0.000371
H  -1.768183   1.644453   0.000846
H   2.099743  -2.190919   0.000429
H   2.815477   2.043805  -0.000502
H  -4.543375   0.126991   0.881119
H  -4.543480   0.127233  -0.881039
H  -3.943118   1.551596   0.000219
H   4.254235  -1.184426  -0.000031

