%chk=E:\Research\Paracetamol Project\paracetamol_opt_freq.chk
# opt freq b3lyp/6-31g geom=connectivity

1983

0 1
 O                  3.85090000    0.45160000    0.00120000
 O                 -2.59990000    1.40410000   -0.00180000
 N                 -1.57050000   -0.71710000    0.00010000
 C                 -0.20660000   -0.42310000   -0.00020000
 C                  0.22050000    0.90470000    0.00040000
 C                  0.72980000   -1.45700000   -0.00070000
 C                  1.58410000    1.19860000    0.00020000
 C                  2.09330000   -1.16290000   -0.00070000
 C                  2.52040000    0.16480000   -0.00030000
 C                 -2.64850000    0.17820000    0.00090000
 C                 -3.97350000   -0.54200000    0.00100000
 H                 -0.44360000    1.75770000    0.00120000
 H                  0.41130000   -2.49630000   -0.00100000
 H                 -1.80100000   -1.70860000    0.00010000
 H                  1.90530000    2.23700000    0.00090000
 H                  2.81800000   -1.97260000   -0.00080000
 H                 -4.06550000   -1.14630000   -0.90580000
 H                 -4.79040000    0.18440000    0.02880000
 H                 -4.04450000   -1.18860000    0.88020000
 H                  3.96500000    1.41760000    0.00170000

 1 9 1.0 20 1.0
 2 10 2.0
 3 4 1.0 10 1.0 14 1.0
 4 5 2.0 6 1.0
 5 7 1.0 12 1.0
 6 8 2.0 13 1.0
 7 9 2.0 15 1.0
 8 9 1.0 16 1.0
 9
 10 11 1.0
 11 17 1.0 18 1.0 19 1.0
 12
 13
 14
 15
 16
 17
 18
 19
 20

