 Entering Gaussian System, Link 0=E:\Research\G09W\g09.exe
 Input=paracetamol_opt_freq.gjf
 Output=E:\Research\Paracetamol Project\paracetamol_opt_freq.out
 Initial command:
 E:\Research\G09W\l1.exe ".\gxx.inp" "E:\Research\Paracetamol Project\paracetamol_opt_freq.out" /scrdir=".\"
 Entering Link 1 = E:\Research\G09W\l1.exe PID=     10632.
  
 Copyright (c) 1988,1990,1992,1993,1995,1998,2003,2009,2013,
            Gaussian, Inc.  All Rights Reserved.
  
 This is part of the Gaussian(R) 09 program.  It is based on
 the Gaussian(R) 03 system (copyright 2003, Gaussian, Inc.),
 the Gaussian(R) 98 system (copyright 1998, Gaussian, Inc.),
 the Gaussian(R) 94 system (copyright 1995, Gaussian, Inc.),
 the Gaussian 92(TM) system (copyright 1992, Gaussian, Inc.),
 the Gaussian 90(TM) system (copyright 1990, Gaussian, Inc.),
 the Gaussian 88(TM) system (copyright 1988, Gaussian, Inc.),
 the Gaussian 86(TM) system (copyright 1986, Carnegie Mellon
 University), and the Gaussian 82(TM) system (copyright 1983,
 Carnegie Mellon University). Gaussian is a federally registered
 trademark of Gaussian, Inc.
  
 This software contains proprietary and confidential information,
 including trade secrets, belonging to Gaussian, Inc.
  
 This software is provided under written license and may be
 used, copied, transmitted, or stored only in accord with that
 written license.
  
 The following legend is applicable only to US Government
 contracts under FAR:
  
                    RESTRICTED RIGHTS LEGEND
  
 Use, reproduction and disclosure by the US Government is
 subject to restrictions as set forth in subparagraphs (a)
 and (c) of the Commercial Computer Software - Restricted
 Rights clause in FAR 52.227-19.
  
 Gaussian, Inc.
 340 Quinnipiac St., Bldg. 40, Wallingford CT 06492
  
  
 ---------------------------------------------------------------
 Warning -- This program may not be used in any manner that
 competes with the business of Gaussian, Inc. or will provide
 assistance to any competitor of Gaussian, Inc.  The licensee
 of this program is prohibited from giving any competitor of
 Gaussian, Inc. access to this program.  By using this program,
 the user acknowledges that Gaussian, Inc. is engaged in the
 business of creating and licensing software in the field of
 computational chemistry and represents and warrants to the
 licensee that it is not a competitor of Gaussian, Inc. and that
 it will not use this program in any manner prohibited above.
 ---------------------------------------------------------------
  

 Cite this work as:
 Gaussian 09, Revision D.01,
 M. J. Frisch, G. W. Trucks, H. B. Schlegel, G. E. Scuseria, 
 M. A. Robb, J. R. Cheeseman, G. Scalmani, V. Barone, B. Mennucci, 
 G. A. Petersson, H. Nakatsuji, M. Caricato, X. Li, H. P. Hratchian, 
 A. F. Izmaylov, J. Bloino, G. Zheng, J. L. Sonnenberg, M. Hada, 
 M. Ehara, K. Toyota, R. Fukuda, J. Hasegawa, M. Ishida, T. Nakajima, 
 Y. Honda, O. Kitao, H. Nakai, T. Vreven, J. A. Montgomery, Jr., 
 J. E. Peralta, F. Ogliaro, M. Bearpark, J. J. Heyd, E. Brothers, 
 K. N. Kudin, V. N. Staroverov, T. Keith, R. Kobayashi, J. Normand, 
 K. Raghavachari, A. Rendell, J. C. Burant, S. S. Iyengar, J. Tomasi, 
 M. Cossi, N. Rega, J. M. Millam, M. Klene, J. E. Knox, J. B. Cross, 
 V. Bakken, C. Adamo, J. Jaramillo, R. Gomperts, R. E. Stratmann, 
 O. Yazyev, A. J. Austin, R. Cammi, C. Pomelli, J. W. Ochterski, 
 R. L. Martin, K. Morokuma, V. G. Zakrzewski, G. A. Voth, 
 P. Salvador, J. J. Dannenberg, S. Dapprich, A. D. Daniels, 
 O. Farkas, J. B. Foresman, J. V. Ortiz, J. Cioslowski, 
 and D. J. Fox, Gaussian, Inc., Wallingford CT, 2013.
 
 ******************************************
 Gaussian 09:  IA32W-G09RevD.01 24-Apr-2013
                23-Aug-2026 
 ******************************************
 %chk=E:\Research\Paracetamol Project\paracetamol_opt_freq.chk
 ----------------------------------------
 # opt freq b3lyp/6-31g geom=connectivity
 ----------------------------------------
 1/14=-1,18=20,19=15,26=3,38=1,57=2/1,3;
 2/9=110,12=2,17=6,18=5,40=1/2;
 3/5=1,6=6,11=2,16=1,25=1,30=1,71=1,74=-5/1,2,3;
 4//1;
 5/5=2,38=5/2;
 6/7=2,8=2,9=2,10=2,28=1/1;
 7//1,2,3,16;
 1/14=-1,18=20,19=15,26=3/3(2);
 2/9=110/2;
 99//99;
 2/9=110/2;
 3/5=1,6=6,11=2,16=1,25=1,30=1,71=1,74=-5/1,2,3;
 4/5=5,16=3,69=1/1;
 5/5=2,38=5/2;
 7//1,2,3,16;
 1/14=-1,18=20,19=15,26=3/3(-5);
 2/9=110/2;
 6/7=2,8=2,9=2,10=2,19=2,28=1/1;
 99/9=1/99;
 ----
 1983
 ----
 Symbolic Z-matrix:
 Charge =  0 Multiplicity = 1
 O                     3.8509    0.4516    0.0012 
 O                    -2.5999    1.4041   -0.0018 
 N                    -1.5705   -0.7171    0.0001 
 C                    -0.2066   -0.4231   -0.0002 
 C                     0.2205    0.9047    0.0004 
 C                     0.7298   -1.457    -0.0007 
 C                     1.5841    1.1986    0.0002 
 C                     2.0933   -1.1629   -0.0007 
 C                     2.5204    0.1648   -0.0003 
 C                    -2.6485    0.1782    0.0009 
 C                    -3.9735   -0.542     0.001 
 H                    -0.4436    1.7577    0.0012 
 H                     0.4113   -2.4963   -0.001 
 H                    -1.801    -1.7086    0.0001 
 H                     1.9053    2.237     0.0009 
 H                     2.818    -1.9726   -0.0008 
 H                    -4.0655   -1.1463   -0.9058 
 H                    -4.7904    0.1844    0.0288 
 H                    -4.0445   -1.1886    0.8802 
 H                     3.965     1.4176    0.0017 
 

 GradGradGradGradGradGradGradGradGradGradGradGradGradGradGradGradGradGrad
 Berny optimization.
 Initialization pass.
                           ----------------------------
                           !    Initial Parameters    !
                           ! (Angstroms and Degrees)  !
 --------------------------                            --------------------------
 ! Name  Definition              Value          Derivative Info.                !
 --------------------------------------------------------------------------------
 ! R1    R(1,9)                  1.3611         estimate D2E/DX2                !
 ! R2    R(1,20)                 0.9727         estimate D2E/DX2                !
 ! R3    R(2,10)                 1.2269         estimate D2E/DX2                !
 ! R4    R(3,4)                  1.3952         estimate D2E/DX2                !
 ! R5    R(3,10)                 1.4013         estimate D2E/DX2                !
 ! R6    R(3,14)                 1.0179         estimate D2E/DX2                !
 ! R7    R(4,5)                  1.3948         estimate D2E/DX2                !
 ! R8    R(4,6)                  1.3949         estimate D2E/DX2                !
 ! R9    R(5,7)                  1.3949         estimate D2E/DX2                !
 ! R10   R(5,12)                 1.081          estimate D2E/DX2                !
 ! R11   R(6,8)                  1.3949         estimate D2E/DX2                !
 ! R12   R(6,13)                 1.087          estimate D2E/DX2                !
 ! R13   R(7,9)                  1.3948         estimate D2E/DX2                !
 ! R14   R(7,15)                 1.0869         estimate D2E/DX2                !
 ! R15   R(8,9)                  1.3947         estimate D2E/DX2                !
 ! R16   R(8,16)                 1.0866         estimate D2E/DX2                !
 ! R17   R(10,11)                1.5081         estimate D2E/DX2                !
 ! R18   R(11,17)                1.0936         estimate D2E/DX2                !
 ! R19   R(11,18)                1.0935         estimate D2E/DX2                !
 ! R20   R(11,19)                1.0937         estimate D2E/DX2                !
 ! A1    A(9,1,20)             108.9008         estimate D2E/DX2                !
 ! A2    A(4,3,10)             128.1253         estimate D2E/DX2                !
 ! A3    A(4,3,14)             115.2519         estimate D2E/DX2                !
 ! A4    A(10,3,14)            116.6229         estimate D2E/DX2                !
 ! A5    A(3,4,5)              119.9953         estimate D2E/DX2                !
 ! A6    A(3,4,6)              120.0026         estimate D2E/DX2                !
 ! A7    A(5,4,6)              120.0021         estimate D2E/DX2                !
 ! A8    A(4,5,7)              119.9939         estimate D2E/DX2                !
 ! A9    A(4,5,12)             124.2667         estimate D2E/DX2                !
 ! A10   A(7,5,12)             115.7394         estimate D2E/DX2                !
 ! A11   A(4,6,8)              119.9951         estimate D2E/DX2                !
 ! A12   A(4,6,13)             120.795          estimate D2E/DX2                !
 ! A13   A(8,6,13)             119.2099         estimate D2E/DX2                !
 ! A14   A(5,7,9)              120.0037         estimate D2E/DX2                !
 ! A15   A(5,7,15)             119.351          estimate D2E/DX2                !
 ! A16   A(9,7,15)             120.6453         estimate D2E/DX2                !
 ! A17   A(6,8,9)              120.0041         estimate D2E/DX2                !
 ! A18   A(6,8,16)             119.6573         estimate D2E/DX2                !
 ! A19   A(9,8,16)             120.3386         estimate D2E/DX2                !
 ! A20   A(1,9,7)              120.0023         estimate D2E/DX2                !
 ! A21   A(1,9,8)              119.9966         estimate D2E/DX2                !
 ! A22   A(7,9,8)              120.0011         estimate D2E/DX2                !
 ! A23   A(2,10,3)             127.4398         estimate D2E/DX2                !
 ! A24   A(2,10,11)            120.7964         estimate D2E/DX2                !
 ! A25   A(3,10,11)            111.7635         estimate D2E/DX2                !
 ! A26   A(10,11,17)           109.74           estimate D2E/DX2                !
 ! A27   A(10,11,18)           109.8233         estimate D2E/DX2                !
 ! A28   A(10,11,19)           109.8423         estimate D2E/DX2                !
 ! A29   A(17,11,18)           108.9843         estimate D2E/DX2                !
 ! A30   A(17,11,19)           109.5378         estimate D2E/DX2                !
 ! A31   A(18,11,19)           108.893          estimate D2E/DX2                !
 ! D1    D(20,1,9,7)            -0.0507         estimate D2E/DX2                !
 ! D2    D(20,1,9,8)          -179.973          estimate D2E/DX2                !
 ! D3    D(10,3,4,5)             0.0037         estimate D2E/DX2                !
 ! D4    D(10,3,4,6)           179.9847         estimate D2E/DX2                !
 ! D5    D(14,3,4,5)          -179.9702         estimate D2E/DX2                !
 ! D6    D(14,3,4,6)             0.0108         estimate D2E/DX2                !
 ! D7    D(4,3,10,2)             0.1939         estimate D2E/DX2                !
 ! D8    D(4,3,10,11)         -179.999          estimate D2E/DX2                !
 ! D9    D(14,3,10,2)         -179.8325         estimate D2E/DX2                !
 ! D10   D(14,3,10,11)          -0.0254         estimate D2E/DX2                !
 ! D11   D(3,4,5,7)            179.9953         estimate D2E/DX2                !
 ! D12   D(3,4,5,12)             0.0061         estimate D2E/DX2                !
 ! D13   D(6,4,5,7)              0.0142         estimate D2E/DX2                !
 ! D14   D(6,4,5,12)          -179.975          estimate D2E/DX2                !
 ! D15   D(3,4,6,8)           -179.9858         estimate D2E/DX2                !
 ! D16   D(3,4,6,13)             0.0085         estimate D2E/DX2                !
 ! D17   D(5,4,6,8)             -0.0047         estimate D2E/DX2                !
 ! D18   D(5,4,6,13)           179.9896         estimate D2E/DX2                !
 ! D19   D(4,5,7,9)             -0.0142         estimate D2E/DX2                !
 ! D20   D(4,5,7,15)          -179.9862         estimate D2E/DX2                !
 ! D21   D(12,5,7,9)           179.9759         estimate D2E/DX2                !
 ! D22   D(12,5,7,15)            0.0038         estimate D2E/DX2                !
 ! D23   D(4,6,8,9)             -0.0047         estimate D2E/DX2                !
 ! D24   D(4,6,8,16)           179.9824         estimate D2E/DX2                !
 ! D25   D(13,6,8,9)          -179.9991         estimate D2E/DX2                !
 ! D26   D(13,6,8,16)           -0.012          estimate D2E/DX2                !
 ! D27   D(5,7,9,1)           -179.9176         estimate D2E/DX2                !
 ! D28   D(5,7,9,8)              0.0047         estimate D2E/DX2                !
 ! D29   D(15,7,9,1)             0.0541         estimate D2E/DX2                !
 ! D30   D(15,7,9,8)           179.9764         estimate D2E/DX2                !
 ! D31   D(6,8,9,1)            179.9271         estimate D2E/DX2                !
 ! D32   D(6,8,9,7)              0.0047         estimate D2E/DX2                !
 ! D33   D(16,8,9,1)            -0.0599         estimate D2E/DX2                !
 ! D34   D(16,8,9,7)          -179.9823         estimate D2E/DX2                !
 ! D35   D(2,10,11,17)         118.0931         estimate D2E/DX2                !
 ! D36   D(2,10,11,18)          -1.6917         estimate D2E/DX2                !
 ! D37   D(2,10,11,19)        -121.4278         estimate D2E/DX2                !
 ! D38   D(3,10,11,17)         -61.7287         estimate D2E/DX2                !
 ! D39   D(3,10,11,18)         178.4865         estimate D2E/DX2                !
 ! D40   D(3,10,11,19)          58.7504         estimate D2E/DX2                !
 --------------------------------------------------------------------------------
 Trust Radius=3.00D-01 FncErr=1.00D-07 GrdErr=1.00D-06
 Number of steps in this run=    101 maximum allowed number of steps=    120.
 GradGradGradGradGradGradGradGradGradGradGradGradGradGradGradGradGradGrad

                          Input orientation:                          
 ---------------------------------------------------------------------
 Center     Atomic      Atomic             Coordinates (Angstroms)
 Number     Number       Type             X           Y           Z
 ---------------------------------------------------------------------
      1          8           0        3.850900    0.451600    0.001200
      2          8           0       -2.599900    1.404100   -0.001800
      3          7           0       -1.570500   -0.717100    0.000100
      4          6           0       -0.206600   -0.423100   -0.000200
      5          6           0        0.220500    0.904700    0.000400
      6          6           0        0.729800   -1.457000   -0.000700
      7          6           0        1.584100    1.198600    0.000200
      8          6           0        2.093300   -1.162900   -0.000700
      9          6           0        2.520400    0.164800   -0.000300
     10          6           0       -2.648500    0.178200    0.000900
     11          6           0       -3.973500   -0.542000    0.001000
     12          1           0       -0.443600    1.757700    0.001200
     13          1           0        0.411300   -2.496300   -0.001000
     14          1           0       -1.801000   -1.708600    0.000100
     15          1           0        1.905300    2.237000    0.000900
     16          1           0        2.818000   -1.972600   -0.000800
     17          1           0       -4.065500   -1.146300   -0.905800
     18          1           0       -4.790400    0.184400    0.028800
     19          1           0       -4.044500   -1.188600    0.880200
     20          1           0        3.965000    1.417600    0.001700
 ---------------------------------------------------------------------
                    Distance matrix (angstroms):
                    1          2          3          4          5
     1  O    0.000000
     2  O    6.520743   0.000000
     3  N    5.545939   2.357787   0.000000
     4  C    4.150712   3.011071   1.395227   0.000000
     5  C    3.658566   2.864273   2.416178   1.394800   0.000000
     6  C    3.658418   4.390079   2.416368   1.394917   2.415991
     7  C    2.386712   4.189044   3.690719   2.415889   1.394913
     8  C    2.386582   5.349357   3.690822   2.415956   2.789687
     9  C    1.361061   5.268144   4.184879   2.789651   2.415987
    10  C    6.505148   1.226866   1.401302   2.514844   2.959555
    11  C    7.887235   2.382035   2.409371   3.768776   4.436505
    12  H    4.488722   2.185102   2.719290   2.193641   1.081036
    13  H    4.530007   4.927519   2.663285   2.163321   3.406348
    14  H    6.050656   3.213588   1.017940   2.048078   3.303907
    15  H    2.640646   4.581545   4.561567   3.396506   2.147923
    16  H    2.635077   6.384023   4.564561   3.398405   3.876321
    17  H    8.126827   3.077294   2.688846   4.029173   4.837106
    18  H    8.645474   2.507368   3.343842   4.623972   5.062485
    19  H    8.111735   3.096270   2.667876   4.011305   4.831788
    20  H    0.972715   6.564915   5.932850   4.559652   3.779464
                    6          7          8          9         10
     6  C    0.000000
     7  C    2.789631   0.000000
     8  C    1.394857   2.415775   0.000000
     9  C    2.415882   1.394776   1.394705   0.000000
    10  C    3.753238   4.353863   4.927801   5.168918   0.000000
    11  C    4.791478   5.823797   6.098490   6.532251   1.508083
    12  H    3.422158   2.103369   3.868562   3.364911   2.712269
    13  H    1.087008   3.876564   2.146411   3.395550   4.063906
    14  H    2.543276   4.462142   3.932348   4.710003   2.068398
    15  H    3.876524   1.086943   3.405094   2.161565   4.997575
    16  H    2.150912   3.402796   1.086648   2.158019   5.874399
    17  H    4.889851   6.183637   6.224974   6.775913   2.141096
    18  H    5.759138   6.454740   7.014372   7.310884   2.142091
    19  H    4.862300   6.176914   6.200745   6.760539   2.142458
    20  H    4.327800   2.390951   3.187828   1.912167   6.728632
                   11         12         13         14         15
    11  C    0.000000
    12  H    4.212934   0.000000
    13  H    4.800600   4.339052   0.000000
    14  H    2.465910   3.722603   2.348349   0.000000
    15  H    6.502548   2.397303   4.963484   5.413356   0.000000
    16  H    6.940540   4.955116   2.463020   4.626538   4.307407
    17  H    1.093585   4.730119   4.762657   2.502958   6.922375
    18  H    1.093506   4.622846   5.851899   3.538472   7.003309
    19  H    1.093675   4.734956   4.726600   2.465414   6.921562
    20  H    8.176785   4.421699   5.286530   6.558955   2.216705
                   16         17         18         19         20
    16  H    0.000000
    17  H    6.991736   0.000000
    18  H    7.908304   1.780371   0.000000
    19  H    6.963097   1.786624   1.779432   0.000000
    20  H    3.578976   8.478565   8.841863   8.468538   0.000000
 Stoichiometry    C8H9NO2
 Framework group  C1[X(C8H9NO2)]
 Deg. of freedom    54
 Full point group                 C1      NOp   1
 Largest Abelian subgroup         C1      NOp   1
 Largest concise Abelian subgroup C1      NOp   1
                         Standard orientation:                         
 ---------------------------------------------------------------------
 Center     Atomic      Atomic             Coordinates (Angstroms)
 Number     Number       Type             X           Y           Z
 ---------------------------------------------------------------------
      1          8           0        3.925856   -0.341418   -0.001140
      2          8           0       -2.495914   -1.473210    0.001860
      3          7           0       -1.525991    0.675837   -0.000040
      4          6           0       -0.154432    0.419937    0.000260
      5          6           0        0.309483   -0.895453   -0.000340
      6          6           0        0.752810    1.479515    0.000760
      7          6           0        1.680740   -1.151261   -0.000140
      8          6           0        2.123972    1.223504    0.000760
      9          6           0        2.587884   -0.091785    0.000360
     10          6           0       -2.578638   -0.249139   -0.000840
     11          6           0       -3.923182    0.433879   -0.000940
     12          1           0       -0.330602   -1.766618   -0.001140
     13          1           0        0.405488    2.509542    0.001060
     14          1           0       -1.784016    1.660532   -0.000040
     15          1           0        2.030735   -2.180313   -0.000840
     16          1           0        2.825840    2.053074    0.000860
     17          1           0       -4.031977    1.035382    0.905860
     18          1           0       -4.719534   -0.314991   -0.028740
     19          1           0       -4.012163    1.078250   -0.880140
     20          1           0        4.066815   -1.303866   -0.001640
 ---------------------------------------------------------------------
 Rotational constants (GHZ):      3.4928079      0.5560265      0.4811366
 Standard basis: 6-31G (6D, 7F)
 There are   117 symmetry adapted cartesian basis functions of A   symmetry.
 There are   117 symmetry adapted basis functions of A   symmetry.
   117 basis functions,   278 primitive gaussians,   117 cartesian basis functions
    40 alpha electrons       40 beta electrons
       nuclear repulsion energy       572.1552830385 Hartrees.
 NAtoms=   20 NActive=   20 NUniq=   20 SFac= 1.00D+00 NAtFMM=   60 NAOKFM=F Big=F
 Integral buffers will be    262144 words long.
 Raffenetti 2 integral format.
 Two-electron integral symmetry is turned on.
 One-electron integrals computed using PRISM.
 NBasis=   117 RedAO= T EigKep=  5.84D-04  NBF=   117
 NBsUse=   117 1.00D-06 EigRej= -1.00D+00 NBFU=   117
 ExpMin= 1.61D-01 ExpMax= 5.48D+03 ExpMxC= 8.25D+02 IAcc=1 IRadAn=         1 AccDes= 0.00D+00
 Harris functional with IExCor=  402 and IRadAn=       1 diagonalized for initial guess.
 HarFok:  IExCor=  402 AccDes= 0.00D+00 IRadAn=         1 IDoV= 1 UseB2=F ITyADJ=14
 ICtDFT=  3500011 ScaDFX=  1.000000  1.000000  1.000000  1.000000
 FoFCou: FMM=F IPFlag=           0 FMFlag=      100000 FMFlg1=           0
         NFxFlg=           0 DoJE=T BraDBF=F KetDBF=T FulRan=T
         wScrn=  0.000000 ICntrl=     500 IOpCl=  0 I1Cent=   200000004 NGrid=           0
         NMat0=    1 NMatS0=      1 NMatT0=    0 NMatD0=    1 NMtDS0=    0 NMtDT0=    0
 Petite list used in FoFCou.
 Keep R1 ints in memory in canonical form, NReq=24825568.
 Requested convergence on RMS density matrix=1.00D-08 within 128 cycles.
 Requested convergence on MAX density matrix=1.00D-06.
 Requested convergence on             energy=1.00D-06.
 No special actions if energy rises.
 Integral accuracy reduced to 1.0D-05 until final iterations.
 Initial convergence to 1.0D-05 achieved.  Increase integral accuracy.
 SCF Done:  E(RB3LYP) =  -515.332786259     A.U. after   16 cycles
            NFock= 16  Conv=0.45D-08     -V/T= 2.0051

 **********************************************************************

            Population analysis using the SCF density.

 **********************************************************************

 Orbital symmetries:
       Occupied  (A) (A) (A) (A) (A) (A) (A) (A) (A) (A) (A) (A)
                 (A) (A) (A) (A) (A) (A) (A) (A) (A) (A) (A) (A)
                 (A) (A) (A) (A) (A) (A) (A) (A) (A) (A) (A) (A)
                 (A) (A) (A) (A)
       Virtual   (A) (A) (A) (A) (A) (A) (A) (A) (A) (A) (A) (A)
                 (A) (A) (A) (A) (A) (A) (A) (A) (A) (A) (A) (A)
                 (A) (A) (A) (A) (A) (A) (A) (A) (A) (A) (A) (A)
                 (A) (A) (A) (A) (A) (A) (A) (A) (A) (A) (A) (A)
                 (A) (A) (A) (A) (A) (A) (A) (A) (A) (A) (A) (A)
                 (A) (A) (A) (A) (A) (A) (A) (A) (A) (A) (A) (A)
                 (A) (A) (A) (A) (A)
 The electronic state is 1-A.
 Alpha  occ. eigenvalues --  -19.17007 -19.12577 -14.37553 -10.30393 -10.24540
 Alpha  occ. eigenvalues --  -10.23060 -10.19453 -10.19069 -10.18727 -10.18662
 Alpha  occ. eigenvalues --  -10.18057  -1.07212  -1.05953  -0.95267  -0.85317
 Alpha  occ. eigenvalues --   -0.77055  -0.75712  -0.72443  -0.64057  -0.63395
 Alpha  occ. eigenvalues --   -0.57763  -0.55239  -0.54658  -0.48711  -0.46485
 Alpha  occ. eigenvalues --   -0.46357  -0.44900  -0.42763  -0.42435  -0.41406
 Alpha  occ. eigenvalues --   -0.40480  -0.39862  -0.39028  -0.37488  -0.34657
 Alpha  occ. eigenvalues --   -0.34098  -0.28849  -0.25588  -0.25416  -0.20153
 Alpha virt. eigenvalues --   -0.00502  -0.00307   0.04670   0.05843   0.06932
 Alpha virt. eigenvalues --    0.10065   0.12194   0.14614   0.15604   0.16053
 Alpha virt. eigenvalues --    0.17579   0.18034   0.19588   0.22061   0.24240
 Alpha virt. eigenvalues --    0.26905   0.28294   0.32753   0.33983   0.34829
 Alpha virt. eigenvalues --    0.37395   0.40431   0.50980   0.51850   0.53904
 Alpha virt. eigenvalues --    0.54216   0.55185   0.57147   0.57986   0.59254
 Alpha virt. eigenvalues --    0.59979   0.60089   0.61820   0.63170   0.63774
 Alpha virt. eigenvalues --    0.64689   0.66688   0.67170   0.67920   0.69237
 Alpha virt. eigenvalues --    0.71223   0.76364   0.77319   0.78490   0.81963
 Alpha virt. eigenvalues --    0.83272   0.84847   0.86493   0.89052   0.90512
 Alpha virt. eigenvalues --    0.91034   0.91118   0.93631   0.94960   0.96949
 Alpha virt. eigenvalues --    0.97438   0.99897   1.02560   1.03416   1.04438
 Alpha virt. eigenvalues --    1.07951   1.08922   1.13107   1.20075   1.20869
 Alpha virt. eigenvalues --    1.23092   1.29385   1.31955   1.37073   1.41510
 Alpha virt. eigenvalues --    1.44095   1.48435   1.67021   1.72777   1.83731
 Alpha virt. eigenvalues --    1.95839   2.08519
          Condensed to atoms (all electrons):
               1          2          3          4          5          6
     1  O    8.273650   0.000000   0.000000  -0.000111   0.006683   0.003857
     2  O    0.000000   8.039735  -0.110965   0.001689  -0.017711   0.000277
     3  N    0.000000  -0.110965   7.697021   0.118840  -0.056705  -0.058406
     4  C   -0.000111   0.001689   0.118840   4.711735   0.553449   0.511098
     5  C    0.006683  -0.017711  -0.056705   0.553449   5.025539  -0.061415
     6  C    0.003857   0.000277  -0.058406   0.511098  -0.061415   5.002895
     7  C   -0.090317   0.000598   0.007705  -0.027093   0.389338  -0.037103
     8  C   -0.059264  -0.000003   0.005848  -0.031077  -0.030694   0.519178
     9  C    0.240690  -0.000008   0.000611  -0.031043  -0.010212  -0.046028
    10  C    0.000000   0.582421   0.026554  -0.028960  -0.008600   0.005527
    11  C    0.000000  -0.099875  -0.175499   0.005531   0.000070  -0.000283
    12  H   -0.000056   0.027154  -0.012619  -0.024820   0.335929   0.003989
    13  H   -0.000056   0.000002  -0.007783  -0.048893   0.004583   0.346159
    14  H    0.000000   0.002204   0.309737  -0.029988   0.003977  -0.002252
    15  H   -0.006885   0.000002  -0.000158   0.003739  -0.018614   0.001065
    16  H   -0.001688   0.000000  -0.000133   0.004184   0.000259  -0.032811
    17  H    0.000000   0.001639   0.004318   0.000027  -0.000017   0.000008
    18  H    0.000000   0.005116   0.006117  -0.000142   0.000015   0.000001
    19  H    0.000000   0.001813   0.004836   0.000075  -0.000019   0.000007
    20  H    0.252596   0.000000   0.000000  -0.000051   0.001049  -0.000191
               7          8          9         10         11         12
     1  O   -0.090317  -0.059264   0.240690   0.000000   0.000000  -0.000056
     2  O    0.000598  -0.000003  -0.000008   0.582421  -0.099875   0.027154
     3  N    0.007705   0.005848   0.000611   0.026554  -0.175499  -0.012619
     4  C   -0.027093  -0.031077  -0.031043  -0.028960   0.005531  -0.024820
     5  C    0.389338  -0.030694  -0.010212  -0.008600   0.000070   0.335929
     6  C   -0.037103   0.519178  -0.046028   0.005527  -0.000283   0.003989
     7  C    5.286872  -0.093906   0.418861   0.000724   0.000002  -0.026666
     8  C   -0.093906   4.971836   0.507572  -0.000100   0.000000   0.000478
     9  C    0.418861   0.507572   4.764600  -0.000026   0.000000   0.003474
    10  C    0.000724  -0.000100  -0.000026   4.708091   0.283344   0.002428
    11  C    0.000002   0.000000   0.000000   0.283344   5.423857   0.000749
    12  H   -0.026666   0.000478   0.003474   0.002428   0.000749   0.505598
    13  H    0.000651  -0.023669   0.004635   0.000155   0.000004  -0.000130
    14  H   -0.000133   0.000210  -0.000011  -0.018743   0.001263  -0.000141
    15  H    0.349674   0.003430  -0.054934   0.000010   0.000000  -0.004835
    16  H    0.006312   0.343068  -0.029645   0.000000   0.000000   0.000008
    17  H    0.000000   0.000000   0.000000  -0.029921   0.350888  -0.000020
    18  H    0.000000   0.000000   0.000000  -0.022215   0.357659   0.000005
    19  H    0.000000   0.000000   0.000000  -0.030189   0.349399  -0.000021
    20  H   -0.007672   0.008620  -0.039990   0.000000   0.000000  -0.000010
              13         14         15         16         17         18
     1  O   -0.000056   0.000000  -0.006885  -0.001688   0.000000   0.000000
     2  O    0.000002   0.002204   0.000002   0.000000   0.001639   0.005116
     3  N   -0.007783   0.309737  -0.000158  -0.000133   0.004318   0.006117
     4  C   -0.048893  -0.029988   0.003739   0.004184   0.000027  -0.000142
     5  C    0.004583   0.003977  -0.018614   0.000259  -0.000017   0.000015
     6  C    0.346159  -0.002252   0.001065  -0.032811   0.000008   0.000001
     7  C    0.000651  -0.000133   0.349674   0.006312   0.000000   0.000000
     8  C   -0.023669   0.000210   0.003430   0.343068   0.000000   0.000000
     9  C    0.004635  -0.000011  -0.054934  -0.029645   0.000000   0.000000
    10  C    0.000155  -0.018743   0.000010   0.000000  -0.029921  -0.022215
    11  C    0.000004   0.001263   0.000000   0.000000   0.350888   0.357659
    12  H   -0.000130  -0.000141  -0.004835   0.000008  -0.000020   0.000005
    13  H    0.600916   0.006311   0.000013  -0.005083  -0.000003   0.000000
    14  H    0.006311   0.405766   0.000003  -0.000010   0.000937  -0.000008
    15  H    0.000013   0.000003   0.599800  -0.000163   0.000000   0.000000
    16  H   -0.005083  -0.000010  -0.000163   0.577331   0.000000   0.000000
    17  H   -0.000003   0.000937   0.000000   0.000000   0.557725  -0.020898
    18  H    0.000000  -0.000008   0.000000   0.000000  -0.020898   0.512307
    19  H   -0.000004   0.001073   0.000000   0.000000  -0.027238  -0.021396
    20  H    0.000005   0.000000   0.006232  -0.000253   0.000000   0.000000
              19         20
     1  O    0.000000   0.252596
     2  O    0.001813   0.000000
     3  N    0.004836   0.000000
     4  C    0.000075  -0.000051
     5  C   -0.000019   0.001049
     6  C    0.000007  -0.000191
     7  C    0.000000  -0.007672
     8  C    0.000000   0.008620
     9  C    0.000000  -0.039990
    10  C   -0.030189   0.000000
    11  C    0.349399   0.000000
    12  H   -0.000021  -0.000010
    13  H   -0.000004   0.000005
    14  H    0.001073   0.000000
    15  H    0.000000   0.006232
    16  H    0.000000  -0.000253
    17  H   -0.027238   0.000000
    18  H   -0.021396   0.000000
    19  H    0.561601   0.000000
    20  H    0.000000   0.408754
 Mulliken charges:
               1
     1  O   -0.619098
     2  O   -0.434089
     3  N   -0.759320
     4  C    0.311811
     5  C   -0.116906
     6  C   -0.155572
     7  C   -0.177849
     8  C   -0.121528
     9  C    0.271454
    10  C    0.529498
    11  C   -0.497111
    12  H    0.189503
    13  H    0.122186
    14  H    0.319805
    15  H    0.121622
    16  H    0.138624
    17  H    0.162555
    18  H    0.183438
    19  H    0.160064
    20  H    0.370913
 Sum of Mulliken charges =   0.00000
 Mulliken charges with hydrogens summed into heavy atoms:
               1
     1  O   -0.248185
     2  O   -0.434089
     3  N   -0.439515
     4  C    0.311811
     5  C    0.072597
     6  C   -0.033386
     7  C   -0.056227
     8  C    0.017096
     9  C    0.271454
    10  C    0.529498
    11  C    0.008946
 Electronic spatial extent (au):  <R**2>=           2219.1628
 Charge=              0.0000 electrons
 Dipole moment (field-independent basis, Debye):
    X=             -0.8307    Y=              2.1359    Z=              0.0001  Tot=              2.2918
 Quadrupole moment (field-independent basis, Debye-Ang):
   XX=            -62.2110   YY=            -58.2079   ZZ=            -66.6205
   XY=            -15.8545   XZ=             -0.0080   YZ=              0.0223
 Traceless Quadrupole moment (field-independent basis, Debye-Ang):
   XX=              0.1355   YY=              4.1386   ZZ=             -4.2741
   XY=            -15.8545   XZ=             -0.0080   YZ=              0.0223
 Octapole moment (field-independent basis, Debye-Ang**2):
  XXX=            -35.9624  YYY=              5.6103  ZZZ=              0.0574  XYY=             25.9332
  XXY=             -7.7016  XXZ=              0.0126  XZZ=             -5.0225  YZZ=             -2.5043
  YYZ=             -0.0439  XYZ=             -0.0488
 Hexadecapole moment (field-independent basis, Debye-Ang**3):
 XXXX=          -2315.8823 YYYY=           -411.1596 ZZZZ=            -70.2668 XXXY=           -164.2496
 XXXZ=              0.0221 YYYX=            -46.1917 YYYZ=             -0.0235 ZZZX=             -0.2641
 ZZZY=              0.0246 XXYY=           -413.4385 XXZZ=           -404.2324 YYZZ=            -90.5296
 XXYZ=              0.3899 YYXZ=              0.0959 ZZXY=             -2.8959
 N-N= 5.721552830385D+02 E-N=-2.346629882280D+03  KE= 5.127408857665D+02
 Calling FoFJK, ICntrl=      2127 FMM=F ISym2X=0 I1Cent= 0 IOpClX= 0 NMat=1 NMatS=1 NMatT=0.
 ***** Axes restored to original set *****
 -------------------------------------------------------------------
 Center     Atomic                   Forces (Hartrees/Bohr)
 Number     Number              X              Y              Z
 -------------------------------------------------------------------
      1        8           0.024295385   -0.000938661   -0.000043025
      2        8           0.011859264    0.027759995    0.000019901
      3        7          -0.019214058   -0.000475448    0.000086484
      4        6          -0.003080661    0.010749951   -0.000060037
      5        6           0.015658436    0.019636118   -0.000008525
      6        6           0.007430163   -0.002410966   -0.000023742
      7        6          -0.006662810   -0.006379724    0.000010462
      8        6           0.002224129   -0.008121381   -0.000017671
      9        6          -0.018270835    0.000091194    0.000090252
     10        6          -0.003586328   -0.037430786   -0.000062453
     11        6          -0.005971109   -0.001267626    0.000466488
     12        1          -0.007418200   -0.007865293   -0.000030794
     13        1          -0.000839390    0.000567344   -0.000000319
     14        1          -0.001434091    0.007283932    0.000049857
     15        1           0.000391925    0.000040543   -0.000003153
     16        1           0.000654515    0.003387725    0.000001958
     17        1          -0.002771227   -0.003094520   -0.000195866
     18        1           0.002710545   -0.000929015   -0.000232839
     19        1          -0.002702431   -0.003183182   -0.000051474
     20        1           0.006726779    0.002579799    0.000004496
 -------------------------------------------------------------------
 Cartesian Forces:  Max     0.037430786 RMS     0.009046090

 GradGradGradGradGradGradGradGradGradGradGradGradGradGradGradGradGradGrad
 Berny optimization.
 FormGI is forming the generalized inverse of G from B-inverse, IUseBI=4.
 GSVD:  received Info=                   1 from GESDD.
 Internal  Forces:  Max     0.030672107 RMS     0.007190725
 Search for a local minimum.
 Step number   1 out of a maximum of  101
 All quantities printed in internal units (Hartrees-Bohrs-Radians)
 Mixed Optimization -- RFO/linear search
 Second derivative matrix not updated -- first step.
 ITU=  0
     Eigenvalues ---    0.00659   0.01104   0.01675   0.01714   0.01755
     Eigenvalues ---    0.02034   0.02156   0.02156   0.02157   0.02157
     Eigenvalues ---    0.02157   0.02158   0.02158   0.02167   0.02207
     Eigenvalues ---    0.07398   0.07426   0.16000   0.16000   0.16000
     Eigenvalues ---    0.16000   0.16000   0.16000   0.16000   0.16000
     Eigenvalues ---    0.16000   0.22000   0.22000   0.22982   0.24000
     Eigenvalues ---    0.25000   0.25000   0.25000   0.25000   0.31544
     Eigenvalues ---    0.34391   0.34402   0.34411   0.35161   0.35168
     Eigenvalues ---    0.35203   0.35869   0.42136   0.42518   0.44668
     Eigenvalues ---    0.45405   0.46421   0.46477   0.46481   0.46493
     Eigenvalues ---    0.46503   0.52734   0.52826   0.92405
 RFO step:  Lambda=-1.30451177D-02 EMin= 6.59030479D-03
 Linear search not attempted -- first point.
 Iteration  1 RMS(Cart)=  0.08521107 RMS(Int)=  0.00205664
 Iteration  2 RMS(Cart)=  0.00339466 RMS(Int)=  0.00006454
 Iteration  3 RMS(Cart)=  0.00000783 RMS(Int)=  0.00006446
 Iteration  4 RMS(Cart)=  0.00000000 RMS(Int)=  0.00006446
 Variable       Old X    -DE/DX   Delta X   Delta X   Delta X     New X
                                 (Linear)    (Quad)   (Total)
    R1        2.57203   0.03067   0.00000   0.05676   0.05676   2.62879
    R2        1.83817   0.00334   0.00000   0.00617   0.00617   1.84434
    R3        2.31844   0.02821   0.00000   0.03011   0.03011   2.34855
    R4        2.63660   0.02302   0.00000   0.04823   0.04823   2.68483
    R5        2.64808  -0.01121   0.00000  -0.02400  -0.02400   2.62408
    R6        1.92363  -0.00677   0.00000  -0.01473  -0.01473   1.90890
    R7        2.63579   0.01008   0.00000   0.02180   0.02183   2.65762
    R8        2.63601   0.00997   0.00000   0.02107   0.02110   2.65711
    R9        2.63600   0.00541   0.00000   0.01184   0.01184   2.64784
   R10        2.04286  -0.00165   0.00000  -0.00444  -0.00444   2.03842
   R11        2.63590   0.00177   0.00000   0.00318   0.00318   2.63908
   R12        2.05415  -0.00029   0.00000  -0.00080  -0.00080   2.05334
   R13        2.63574   0.00856   0.00000   0.01771   0.01768   2.65343
   R14        2.05402   0.00015   0.00000   0.00042   0.00042   2.05444
   R15        2.63561   0.00122   0.00000   0.00184   0.00182   2.63743
   R16        2.05347  -0.00209   0.00000  -0.00571  -0.00571   2.04776
   R17        2.84986   0.01171   0.00000   0.03564   0.03564   2.88551
   R18        2.06658   0.00210   0.00000   0.00588   0.00588   2.07246
   R19        2.06643  -0.00264   0.00000  -0.00740  -0.00740   2.05903
   R20        2.06675   0.00201   0.00000   0.00564   0.00564   2.07238
    A1        1.90068   0.01173   0.00000   0.06779   0.06779   1.96847
    A2        2.23621   0.00748   0.00000   0.03210   0.03210   2.26830
    A3        2.01152  -0.00081   0.00000   0.00091   0.00091   2.01243
    A4        2.03545  -0.00667   0.00000  -0.03300  -0.03300   2.00245
    A5        2.09431   0.01644   0.00000   0.06210   0.06207   2.15638
    A6        2.09444  -0.00920   0.00000  -0.03540  -0.03543   2.05901
    A7        2.09443  -0.00724   0.00000  -0.02670  -0.02664   2.06779
    A8        2.09429  -0.00092   0.00000  -0.00235  -0.00232   2.09197
    A9        2.16886  -0.01045   0.00000  -0.06188  -0.06189   2.10697
   A10        2.02003   0.01137   0.00000   0.06422   0.06421   2.08424
   A11        2.09431   0.00638   0.00000   0.02574   0.02578   2.12009
   A12        2.10827  -0.00419   0.00000  -0.01865  -0.01866   2.08960
   A13        2.08061  -0.00219   0.00000  -0.00710  -0.00711   2.07349
   A14        2.09446   0.00496   0.00000   0.02097   0.02094   2.11540
   A15        2.08307  -0.00210   0.00000  -0.00830  -0.00828   2.07479
   A16        2.10566  -0.00286   0.00000  -0.01268  -0.01266   2.09300
   A17        2.09447   0.00089   0.00000   0.00031   0.00029   2.09475
   A18        2.08841   0.00237   0.00000   0.01610   0.01611   2.10453
   A19        2.10030  -0.00326   0.00000  -0.01641  -0.01640   2.08391
   A20        2.09443   0.01427   0.00000   0.05550   0.05553   2.14996
   A21        2.09434  -0.01020   0.00000  -0.03751  -0.03749   2.05685
   A22        2.09441  -0.00407   0.00000  -0.01798  -0.01804   2.07637
   A23        2.22424  -0.01614   0.00000  -0.06137  -0.06137   2.16287
   A24        2.10829   0.00879   0.00000   0.03340   0.03340   2.14170
   A25        1.95064   0.00736   0.00000   0.02797   0.02797   1.97861
   A26        1.91532   0.00440   0.00000   0.02554   0.02540   1.94073
   A27        1.91678  -0.00314   0.00000  -0.01884  -0.01872   1.89805
   A28        1.91711   0.00452   0.00000   0.02678   0.02664   1.94375
   A29        1.90213  -0.00092   0.00000  -0.00657  -0.00645   1.89568
   A30        1.91180  -0.00424   0.00000  -0.02306  -0.02342   1.88838
   A31        1.90054  -0.00074   0.00000  -0.00445  -0.00433   1.89621
    D1       -0.00088   0.00002   0.00000   0.00051   0.00052  -0.00036
    D2       -3.14112  -0.00002   0.00000  -0.00068  -0.00069   3.14138
    D3        0.00006   0.00000   0.00000   0.00008   0.00008   0.00015
    D4        3.14133   0.00001   0.00000   0.00024   0.00025   3.14157
    D5       -3.14107  -0.00001   0.00000  -0.00043  -0.00043  -3.14151
    D6        0.00019  -0.00001   0.00000  -0.00027  -0.00027  -0.00009
    D7        0.00338  -0.00010   0.00000  -0.00283  -0.00281   0.00057
    D8       -3.14157  -0.00004   0.00000  -0.00168  -0.00170   3.13991
    D9       -3.13867  -0.00008   0.00000  -0.00230  -0.00228  -3.14095
   D10       -0.00044  -0.00002   0.00000  -0.00116  -0.00118  -0.00162
   D11        3.14151  -0.00001   0.00000  -0.00020  -0.00019   3.14132
   D12        0.00011  -0.00002   0.00000  -0.00041  -0.00040  -0.00029
   D13        0.00025  -0.00001   0.00000  -0.00036  -0.00035  -0.00010
   D14       -3.14116  -0.00002   0.00000  -0.00057  -0.00056   3.14147
   D15       -3.14134   0.00000   0.00000  -0.00004  -0.00002  -3.14137
   D16        0.00015   0.00000   0.00000   0.00006   0.00007   0.00021
   D17       -0.00008   0.00000   0.00000   0.00014   0.00015   0.00006
   D18        3.14141   0.00001   0.00000   0.00024   0.00024  -3.14154
   D19       -0.00025   0.00001   0.00000   0.00030   0.00029   0.00005
   D20       -3.14135  -0.00001   0.00000  -0.00024  -0.00025   3.14158
   D21        3.14117   0.00001   0.00000   0.00048   0.00049  -3.14152
   D22        0.00007   0.00000   0.00000  -0.00006  -0.00006   0.00001
   D23       -0.00008   0.00001   0.00000   0.00012   0.00012   0.00003
   D24        3.14128   0.00001   0.00000   0.00030   0.00029   3.14158
   D25       -3.14158   0.00000   0.00000   0.00003   0.00003  -3.14155
   D26       -0.00021   0.00001   0.00000   0.00020   0.00020  -0.00001
   D27       -3.14015  -0.00003   0.00000  -0.00121  -0.00124  -3.14139
   D28        0.00008   0.00000   0.00000  -0.00003  -0.00003   0.00005
   D29        0.00094  -0.00002   0.00000  -0.00066  -0.00068   0.00026
   D30        3.14118   0.00002   0.00000   0.00051   0.00052  -3.14148
   D31        3.14032   0.00005   0.00000   0.00107   0.00104   3.14136
   D32        0.00008  -0.00001   0.00000  -0.00018  -0.00017  -0.00009
   D33       -0.00105   0.00004   0.00000   0.00089   0.00086  -0.00018
   D34       -3.14128  -0.00002   0.00000  -0.00036  -0.00035   3.14155
   D35        2.06111  -0.00024   0.00000  -0.00239  -0.00257   2.05855
   D36       -0.02953   0.00010   0.00000   0.00151   0.00152  -0.02800
   D37       -2.11931   0.00014   0.00000   0.00206   0.00226  -2.11705
   D38       -1.07737  -0.00024   0.00000  -0.00325  -0.00345  -1.08082
   D39        3.11518   0.00010   0.00000   0.00066   0.00064   3.11582
   D40        1.02539   0.00014   0.00000   0.00120   0.00138   1.02677
         Item               Value     Threshold  Converged?
 Maximum Force            0.030672     0.000450     NO 
 RMS     Force            0.007191     0.000300     NO 
 Maximum Displacement     0.421817     0.001800     NO 
 RMS     Displacement     0.086064     0.001200     NO 
 Predicted change in Energy=-6.820844D-03
 GradGradGradGradGradGradGradGradGradGradGradGradGradGradGradGradGradGrad

                          Input orientation:                          
 ---------------------------------------------------------------------
 Center     Atomic      Atomic             Coordinates (Angstroms)
 Number     Number       Type             X           Y           Z
 ---------------------------------------------------------------------
      1          8           0        3.939770    0.369091   -0.000255
      2          8           0       -2.667008    1.391751    0.001409
      3          7           0       -1.600417   -0.672558    0.001344
      4          6           0       -0.220138   -0.335867    0.000667
      5          6           0        0.257241    0.986982    0.000678
      6          6           0        0.714886   -1.386007    0.000162
      7          6           0        1.637056    1.230727    0.000315
      8          6           0        2.089317   -1.138480   -0.000248
      9          6           0        2.562339    0.174583   -0.000119
     10          6           0       -2.719138    0.150047    0.001956
     11          6           0       -4.037409   -0.620483    0.000212
     12          1           0       -0.427962    1.820084    0.000943
     13          1           0        0.368432   -2.415877    0.000093
     14          1           0       -1.803455   -1.662088    0.001330
     15          1           0        1.988463    2.259529    0.000315
     16          1           0        2.797232   -1.958906   -0.000619
     17          1           0       -4.136464   -1.234734   -0.902912
     18          1           0       -4.860284    0.093203    0.027406
     19          1           0       -4.116079   -1.279719    0.873068
     20          1           0        4.188216    1.312922   -0.000345
 ---------------------------------------------------------------------
                    Distance matrix (angstroms):
                    1          2          3          4          5
     1  O    0.000000
     2  O    6.685458   0.000000
     3  N    5.637261   2.323573   0.000000
     4  C    4.219218   2.995303   1.420751   0.000000
     5  C    3.734008   2.952129   2.490978   1.406350   0.000000
     6  C    3.671546   4.376431   2.422734   1.406081   2.416717
     7  C    2.458640   4.307075   3.755492   2.429688   1.401178
     8  C    2.386828   5.387457   3.719035   2.444947   2.806081
     9  C    1.391097   5.369131   4.248080   2.828911   2.444068
    10  C    6.662510   1.242798   1.388602   2.545803   3.091810
    11  C    8.038324   2.434562   2.437549   3.827867   4.585626
    12  H    4.602441   2.279648   2.754618   2.165945   1.078685
    13  H    4.528852   4.869489   2.629739   2.161678   3.404675
    14  H    6.091824   3.173587   1.010145   2.065370   3.356194
    15  H    2.716866   4.735657   4.634350   3.407932   2.148605
    16  H    2.593253   6.409745   4.581922   3.426190   3.889706
    17  H    8.283272   3.142535   2.750500   4.118498   5.005711
    18  H    8.804421   2.548993   3.348701   4.660018   5.195057
    19  H    8.269097   3.161700   2.730769   4.102474   5.002492
    20  H    0.975983   6.855677   6.119674   4.706601   3.944465
                    6          7          8          9         10
     6  C    0.000000
     7  C    2.774472   0.000000
     8  C    1.396542   2.411987   0.000000
     9  C    2.418372   1.404133   1.395666   0.000000
    10  C    3.761912   4.488239   4.978106   5.281534   0.000000
    11  C    4.813558   5.968796   6.148584   6.647466   1.526945
    12  H    3.403693   2.147473   3.884558   3.413147   2.835227
    13  H    1.086582   3.860974   2.143172   3.394658   4.014605
    14  H    2.533429   4.495052   3.927829   4.736403   2.030347
    15  H    3.861598   1.087163   3.399506   2.162484   5.158626
    16  H    2.159717   3.394078   1.083625   2.146381   5.905762
    17  H    4.937005   6.342542   6.291614   6.904721   2.178352
    18  H    5.768130   6.596220   7.057957   7.423120   2.142052
    19  H    4.910344   6.337396   6.268138   6.890479   2.180484
    20  H    4.398663   2.552484   3.227189   1.984765   7.004557
                   11         12         13         14         15
    11  C    0.000000
    12  H    4.357119   0.000000
    13  H    4.757613   4.310175   0.000000
    14  H    2.464851   3.743996   2.298977   0.000000
    15  H    6.678743   2.456058   4.948123   5.455064   0.000000
    16  H    6.964460   4.968163   2.471415   4.610252   4.295266
    17  H    1.096699   4.888953   4.743902   2.538349   7.109179
    18  H    1.089591   4.756921   5.799629   3.525043   7.183247
    19  H    1.096657   4.896079   4.707842   2.500872   7.110092
    20  H    8.449791   4.643954   5.338041   6.689604   2.394782
                   16         17         18         19         20
    16  H    0.000000
    17  H    7.029559   0.000000
    18  H    7.927767   1.775619   0.000000
    19  H    7.001321   1.776666   1.775922   0.000000
    20  H    3.555235   8.752455   9.130380   8.743337   0.000000
 Stoichiometry    C8H9NO2
 Framework group  C1[X(C8H9NO2)]
 Deg. of freedom    54
 Full point group                 C1      NOp   1
 Largest Abelian subgroup         C1      NOp   1
 Largest concise Abelian subgroup C1      NOp   1
                         Standard orientation:                         
 ---------------------------------------------------------------------
 Center     Atomic      Atomic             Coordinates (Angstroms)
 Number     Number       Type             X           Y           Z
 ---------------------------------------------------------------------
      1          8           0        4.015985   -0.227709    0.000138
      2          8           0       -2.553307   -1.468575   -0.000162
      3          7           0       -1.555656    0.629920   -0.000732
      4          6           0       -0.164985    0.339118   -0.000221
      5          6           0        0.355935   -0.967199   -0.000024
      6          6           0        0.734754    1.419643   -0.000106
      7          6           0        1.743064   -1.165120    0.000154
      8          6           0        2.116627    1.217762    0.000120
      9          6           0        2.632868   -0.078917    0.000197
     10          6           0       -2.646525   -0.229278   -0.000971
     11          6           0       -3.989587    0.497180    0.000831
     12          1           0       -0.301306   -1.822533    0.000012
     13          1           0        0.354389    2.437476   -0.000203
     14          1           0       -1.791348    1.612184   -0.000900
     15          1           0        2.128344   -2.181723    0.000319
     16          1           0        2.796988    2.061179    0.000190
     17          1           0       -4.108777    1.108017    0.903838
     18          1           0       -4.788383   -0.243368   -0.026064
     19          1           0       -4.090187    1.153253   -0.872155
     20          1           0        4.295547   -1.162796    0.000392
 ---------------------------------------------------------------------
 Rotational constants (GHZ):      3.5647074      0.5342199      0.4659568
 Standard basis: 6-31G (6D, 7F)
 There are   117 symmetry adapted cartesian basis functions of A   symmetry.
 There are   117 symmetry adapted basis functions of A   symmetry.
   117 basis functions,   278 primitive gaussians,   117 cartesian basis functions
    40 alpha electrons       40 beta electrons
       nuclear repulsion energy       566.3135527250 Hartrees.
 NAtoms=   20 NActive=   20 NUniq=   20 SFac= 1.00D+00 NAtFMM=   60 NAOKFM=F Big=F
 Integral buffers will be    262144 words long.
 Raffenetti 2 integral format.
 Two-electron integral symmetry is turned on.
 One-electron integrals computed using PRISM.
 NBasis=   117 RedAO= T EigKep=  5.97D-04  NBF=   117
 NBsUse=   117 1.00D-06 EigRej= -1.00D+00 NBFU=   117
 Initial guess from the checkpoint file:  "E:\Research\Paracetamol Project\paracetamol_opt_freq.chk"
 B after Tr=     0.000000    0.000000    0.000000
         Rot=    0.999996   -0.000007    0.000011   -0.002711 Ang=  -0.31 deg.
 ExpMin= 1.61D-01 ExpMax= 5.48D+03 ExpMxC= 8.25D+02 IAcc=1 IRadAn=         1 AccDes= 0.00D+00
 Harris functional with IExCor=  402 and IRadAn=       1 diagonalized for initial guess.
 HarFok:  IExCor=  402 AccDes= 0.00D+00 IRadAn=         1 IDoV= 1 UseB2=F ITyADJ=14
 ICtDFT=  3500011 ScaDFX=  1.000000  1.000000  1.000000  1.000000
 FoFCou: FMM=F IPFlag=           0 FMFlag=      100000 FMFlg1=           0
         NFxFlg=           0 DoJE=T BraDBF=F KetDBF=T FulRan=T
         wScrn=  0.000000 ICntrl=     500 IOpCl=  0 I1Cent=   200000004 NGrid=           0
         NMat0=    1 NMatS0=      1 NMatT0=    0 NMatD0=    1 NMtDS0=    0 NMtDT0=    0
 Petite list used in FoFCou.
 Keep R1 ints in memory in canonical form, NReq=24825568.
 Requested convergence on RMS density matrix=1.00D-08 within 128 cycles.
 Requested convergence on MAX density matrix=1.00D-06.
 Requested convergence on             energy=1.00D-06.
 No special actions if energy rises.
 Integral accuracy reduced to 1.0D-05 until final iterations.
 Initial convergence to 1.0D-05 achieved.  Increase integral accuracy.
 SCF Done:  E(RB3LYP) =  -515.338786354     A.U. after   13 cycles
            NFock= 13  Conv=0.62D-08     -V/T= 2.0057
 Calling FoFJK, ICntrl=      2127 FMM=F ISym2X=0 I1Cent= 0 IOpClX= 0 NMat=1 NMatS=1 NMatT=0.
 ***** Axes restored to original set *****
 -------------------------------------------------------------------
 Center     Atomic                   Forces (Hartrees/Bohr)
 Number     Number              X              Y              Z
 -------------------------------------------------------------------
      1        8           0.002333714   -0.002641876   -0.000010934
      2        8           0.000640861    0.006680323    0.000017247
      3        7          -0.004164280    0.000878643    0.000031749
      4        6          -0.000736846    0.003510047   -0.000019977
      5        6           0.004212302    0.001236913   -0.000007436
      6        6           0.002364873   -0.001346983   -0.000001145
      7        6           0.001071249   -0.002085621   -0.000006437
      8        6          -0.001723908   -0.003678912    0.000000660
      9        6          -0.006856871    0.006662964    0.000014472
     10        6           0.003461651   -0.009982160   -0.000022965
     11        6           0.001538864    0.002030741    0.000067263
     12        1          -0.002945939   -0.000772226    0.000001990
     13        1          -0.000253631   -0.000401690    0.000000988
     14        1           0.002185386   -0.001264137    0.000021393
     15        1          -0.000195745    0.000037644    0.000003611
     16        1           0.000328291    0.000369910    0.000000731
     17        1           0.000327823   -0.000070056    0.000009058
     18        1           0.000121233    0.000802863   -0.000025936
     19        1           0.000385100   -0.000067441   -0.000076174
     20        1          -0.002094126    0.000101055    0.000001843
 -------------------------------------------------------------------
 Cartesian Forces:  Max     0.009982160 RMS     0.002477052

 GradGradGradGradGradGradGradGradGradGradGradGradGradGradGradGradGradGrad
 Berny optimization.
 Using GEDIIS/GDIIS optimizer.
 FormGI is forming the generalized inverse of G from B-inverse, IUseBI=4.
 GSVD:  received Info=                   1 from GESDD.
 Internal  Forces:  Max     0.007534028 RMS     0.001982571
 Search for a local minimum.
 Step number   2 out of a maximum of  101
 All quantities printed in internal units (Hartrees-Bohrs-Radians)
 Mixed Optimization -- RFO/linear search
 Update second derivatives using D2CorX and points    1    2
 DE= -6.00D-03 DEPred=-6.82D-03 R= 8.80D-01
 TightC=F SS=  1.41D+00  RLast= 2.14D-01 DXNew= 5.0454D-01 6.4143D-01
 Trust test= 8.80D-01 RLast= 2.14D-01 DXMaxT set to 5.05D-01
 ITU=  1  0
 Use linear search instead of GDIIS.
     Eigenvalues ---    0.00659   0.01072   0.01675   0.01715   0.01755
     Eigenvalues ---    0.02030   0.02156   0.02156   0.02157   0.02157
     Eigenvalues ---    0.02157   0.02158   0.02158   0.02167   0.02207
     Eigenvalues ---    0.07141   0.07426   0.14790   0.16000   0.16000
     Eigenvalues ---    0.16000   0.16000   0.16000   0.16000   0.16000
     Eigenvalues ---    0.16619   0.21739   0.22301   0.22967   0.23548
     Eigenvalues ---    0.24763   0.25000   0.25000   0.27765   0.32524
     Eigenvalues ---    0.34392   0.34400   0.34449   0.35164   0.35169
     Eigenvalues ---    0.35204   0.35926   0.42156   0.42591   0.44174
     Eigenvalues ---    0.44755   0.46260   0.46465   0.46484   0.46495
     Eigenvalues ---    0.49394   0.52810   0.54219   0.89825
 RFO step:  Lambda=-1.08173452D-03 EMin= 6.59030422D-03
 Quartic linear search produced a step of -0.05720.
 Iteration  1 RMS(Cart)=  0.03483134 RMS(Int)=  0.00035515
 Iteration  2 RMS(Cart)=  0.00058361 RMS(Int)=  0.00000455
 Iteration  3 RMS(Cart)=  0.00000004 RMS(Int)=  0.00000455
 Variable       Old X    -DE/DX   Delta X   Delta X   Delta X     New X
                                 (Linear)    (Quad)   (Total)
    R1        2.62879  -0.00012  -0.00325   0.00774   0.00449   2.63328
    R2        1.84434  -0.00044  -0.00035   0.00008  -0.00028   1.84406
    R3        2.34855   0.00671  -0.00172   0.01106   0.00934   2.35788
    R4        2.68483  -0.00414  -0.00276  -0.00164  -0.00440   2.68043
    R5        2.62408  -0.00556   0.00137  -0.01486  -0.01349   2.61059
    R6        1.90890   0.00080   0.00084  -0.00038   0.00046   1.90936
    R7        2.65762  -0.00127  -0.00125   0.00037  -0.00088   2.65673
    R8        2.65711   0.00039  -0.00121   0.00389   0.00269   2.65979
    R9        2.64784  -0.00353  -0.00068  -0.00574  -0.00642   2.64142
   R10        2.03842   0.00127   0.00025   0.00272   0.00297   2.04139
   R11        2.63908  -0.00371  -0.00018  -0.00681  -0.00699   2.63210
   R12        2.05334   0.00046   0.00005   0.00113   0.00117   2.05452
   R13        2.65343  -0.00358  -0.00101  -0.00491  -0.00592   2.64750
   R14        2.05444  -0.00003  -0.00002  -0.00002  -0.00005   2.05439
   R15        2.63743   0.00213  -0.00010   0.00466   0.00456   2.64198
   R16        2.04776  -0.00006   0.00033  -0.00097  -0.00064   2.04711
   R17        2.88551  -0.00342  -0.00204  -0.00521  -0.00725   2.87826
   R18        2.07246   0.00000  -0.00034   0.00082   0.00048   2.07294
   R19        2.05903   0.00044   0.00042   0.00016   0.00059   2.05962
   R20        2.07238  -0.00005  -0.00032   0.00065   0.00032   2.07271
    A1        1.96847  -0.00377  -0.00388  -0.01274  -0.01661   1.95186
    A2        2.26830  -0.00753  -0.00184  -0.02767  -0.02950   2.23880
    A3        2.01243   0.00148  -0.00005   0.00281   0.00276   2.01519
    A4        2.00245   0.00605   0.00189   0.02485   0.02674   2.02919
    A5        2.15638  -0.00343  -0.00355  -0.00456  -0.00811   2.14828
    A6        2.05901   0.00024   0.00203  -0.00432  -0.00229   2.05672
    A7        2.06779   0.00319   0.00152   0.00888   0.01040   2.07819
    A8        2.09197  -0.00066   0.00013  -0.00330  -0.00318   2.08879
    A9        2.10697  -0.00249   0.00354  -0.02353  -0.01998   2.08699
   A10        2.08424   0.00315  -0.00367   0.02683   0.02316   2.10741
   A11        2.12009  -0.00258  -0.00147  -0.00600  -0.00747   2.11261
   A12        2.08960   0.00117   0.00107   0.00151   0.00258   2.09218
   A13        2.07349   0.00141   0.00041   0.00449   0.00490   2.07839
   A14        2.11540  -0.00189  -0.00120  -0.00540  -0.00661   2.10879
   A15        2.07479   0.00075   0.00047   0.00185   0.00232   2.07711
   A16        2.09300   0.00114   0.00072   0.00356   0.00428   2.09728
   A17        2.09475  -0.00155  -0.00002  -0.00522  -0.00522   2.08953
   A18        2.10453   0.00127  -0.00092   0.00776   0.00683   2.11135
   A19        2.08391   0.00028   0.00094  -0.00254  -0.00161   2.08230
   A20        2.14996  -0.00027  -0.00318   0.00650   0.00333   2.15329
   A21        2.05685  -0.00323   0.00214  -0.01755  -0.01541   2.04144
   A22        2.07637   0.00350   0.00103   0.01105   0.01209   2.08846
   A23        2.16287  -0.00186   0.00351  -0.01551  -0.01200   2.15087
   A24        2.14170  -0.00101  -0.00191   0.00086  -0.00105   2.14064
   A25        1.97861   0.00287  -0.00160   0.01466   0.01306   1.99167
   A26        1.94073  -0.00020  -0.00145   0.00217   0.00072   1.94145
   A27        1.89805  -0.00083   0.00107  -0.00721  -0.00615   1.89191
   A28        1.94375  -0.00024  -0.00152   0.00223   0.00071   1.94446
   A29        1.89568   0.00054   0.00037   0.00237   0.00273   1.89841
   A30        1.88838   0.00016   0.00134  -0.00270  -0.00134   1.88704
   A31        1.89621   0.00061   0.00025   0.00328   0.00352   1.89974
    D1       -0.00036   0.00000  -0.00003   0.00021   0.00017  -0.00019
    D2        3.14138   0.00000   0.00004  -0.00011  -0.00007   3.14131
    D3        0.00015   0.00000   0.00000   0.00020   0.00019   0.00034
    D4        3.14157   0.00001  -0.00001   0.00037   0.00035  -3.14126
    D5       -3.14151   0.00000   0.00002  -0.00027  -0.00024   3.14144
    D6       -0.00009   0.00000   0.00002  -0.00010  -0.00008  -0.00016
    D7        0.00057  -0.00003   0.00016  -0.00189  -0.00173  -0.00116
    D8        3.13991  -0.00003   0.00010  -0.00175  -0.00166   3.13825
    D9       -3.14095  -0.00002   0.00013  -0.00143  -0.00130   3.14093
   D10       -0.00162  -0.00002   0.00007  -0.00129  -0.00122  -0.00285
   D11        3.14132   0.00000   0.00001   0.00014   0.00015   3.14147
   D12       -0.00029   0.00000   0.00002   0.00013   0.00015  -0.00015
   D13       -0.00010   0.00000   0.00002  -0.00003  -0.00001  -0.00012
   D14        3.14147   0.00000   0.00003  -0.00005  -0.00002   3.14145
   D15       -3.14137   0.00000   0.00000  -0.00019  -0.00019  -3.14155
   D16        0.00021   0.00000   0.00000  -0.00009  -0.00010   0.00012
   D17        0.00006   0.00000  -0.00001  -0.00002  -0.00003   0.00003
   D18       -3.14154   0.00000  -0.00001   0.00007   0.00006  -3.14148
   D19        0.00005   0.00000  -0.00002   0.00008   0.00006   0.00011
   D20        3.14158   0.00000   0.00001   0.00000   0.00001  -3.14159
   D21       -3.14152   0.00000  -0.00003   0.00009   0.00006  -3.14146
   D22        0.00001   0.00000   0.00000   0.00001   0.00002   0.00002
   D23        0.00003   0.00000  -0.00001   0.00004   0.00003   0.00007
   D24        3.14158   0.00000  -0.00002   0.00012   0.00011  -3.14150
   D25       -3.14155   0.00000   0.00000  -0.00005  -0.00005   3.14158
   D26       -0.00001   0.00000  -0.00001   0.00003   0.00002   0.00001
   D27       -3.14139  -0.00001   0.00007  -0.00037  -0.00030   3.14149
   D28        0.00005   0.00000   0.00000  -0.00006  -0.00006  -0.00001
   D29        0.00026   0.00000   0.00004  -0.00029  -0.00026   0.00001
   D30       -3.14148   0.00000  -0.00003   0.00002  -0.00001  -3.14149
   D31        3.14136   0.00000  -0.00006   0.00030   0.00024  -3.14159
   D32       -0.00009   0.00000   0.00001   0.00000   0.00001  -0.00008
   D33       -0.00018   0.00000  -0.00005   0.00022   0.00017  -0.00001
   D34        3.14155   0.00000   0.00002  -0.00008  -0.00006   3.14149
   D35        2.05855   0.00003   0.00015  -0.00029  -0.00013   2.05842
   D36       -0.02800   0.00002  -0.00009   0.00007  -0.00002  -0.02802
   D37       -2.11705  -0.00006  -0.00013  -0.00071  -0.00085  -2.11791
   D38       -1.08082   0.00003   0.00020  -0.00039  -0.00019  -1.08100
   D39        3.11582   0.00002  -0.00004  -0.00004  -0.00007   3.11575
   D40        1.02677  -0.00006  -0.00008  -0.00082  -0.00091   1.02586
         Item               Value     Threshold  Converged?
 Maximum Force            0.007534     0.000450     NO 
 RMS     Force            0.001983     0.000300     NO 
 Maximum Displacement     0.137792     0.001800     NO 
 RMS     Displacement     0.035007     0.001200     NO 
 Predicted change in Energy=-5.667527D-04
 GradGradGradGradGradGradGradGradGradGradGradGradGradGradGradGradGradGrad

                          Input orientation:                          
 ---------------------------------------------------------------------
 Center     Atomic      Atomic             Coordinates (Angstroms)
 Number     Number       Type             X           Y           Z
 ---------------------------------------------------------------------
      1          8           0        3.920939    0.384405   -0.001369
      2          8           0       -2.594091    1.377917    0.003422
      3          7           0       -1.591838   -0.707809    0.002492
      4          6           0       -0.216753   -0.359861    0.001469
      5          6           0        0.238340    0.970326    0.000998
      6          6           0        0.725806   -1.405157    0.000917
      7          6           0        1.611398    1.232039    0.000137
      8          6           0        2.093071   -1.139447   -0.000045
      9          6           0        2.541859    0.184642   -0.000391
     10          6           0       -2.687442    0.133676    0.002818
     11          6           0       -4.027754   -0.589795   -0.000664
     12          1           0       -0.477981    1.778929    0.001284
     13          1           0        0.388301   -2.438647    0.001167
     14          1           0       -1.789165   -1.698741    0.002599
     15          1           0        1.951276    2.264682   -0.000221
     16          1           0        2.817500   -1.944874   -0.000550
     17          1           0       -4.147664   -1.199815   -0.904436
     18          1           0       -4.821581    0.156518    0.026602
     19          1           0       -4.129874   -1.247704    0.870978
     20          1           0        4.150253    1.332916   -0.001806
 ---------------------------------------------------------------------
                    Distance matrix (angstroms):
                    1          2          3          4          5
     1  O    0.000000
     2  O    6.590349   0.000000
     3  N    5.619933   2.314037   0.000000
     4  C    4.204097   2.944761   1.418424   0.000000
     5  C    3.728920   2.861608   2.483080   1.405883   0.000000
     6  C    3.662160   4.332116   2.420283   1.407502   2.424983
     7  C    2.460175   4.208020   3.744828   2.424104   1.397778
     8  C    2.379754   5.320397   3.710104   2.437836   2.809123
     9  C    1.393474   5.272751   4.228939   2.811836   2.433824
    10  C    6.613137   1.247738   1.381465   2.519501   3.043055
    11  C    8.008170   2.434604   2.438775   3.817932   4.542415
    12  H    4.614672   2.153773   2.724801   2.154683   1.080256
    13  H    4.522075   4.843638   2.629972   2.165050   3.412270
    14  H    6.078223   3.180210   1.010389   2.065207   3.351820
    15  H    2.723052   4.631062   4.624864   3.404200   2.146977
    16  H    2.577425   6.350297   4.579585   3.423296   3.892359
    17  H    8.272100   3.143644   2.756236   4.120468   4.976581
    18  H    8.745535   2.540485   3.343484   4.633759   5.125011
    19  H    8.260772   3.163095   2.736308   4.105707   4.975722
    20  H    0.975837   6.744496   6.093946   4.683614   3.928682
                    6          7          8          9         10
     6  C    0.000000
     7  C    2.781920   0.000000
     8  C    1.392845   2.419908   0.000000
     9  C    2.413609   1.400999   1.398078   0.000000
    10  C    3.744099   4.436940   4.947136   5.229550   0.000000
    11  C    4.822982   5.926138   6.145455   6.615101   1.523108
    12  H    3.404043   2.159767   3.889374   3.414848   2.754737
    13  H    1.087203   3.869096   2.143400   3.394033   4.009619
    14  H    2.532049   4.489243   3.922317   4.722807   2.040749
    15  H    3.869044   1.087138   3.407081   2.162257   5.104792
    16  H    2.160203   3.398155   1.083286   2.147281   5.884281
    17  H    4.961103   6.316563   6.306215   6.890844   2.175674
    18  H    5.763072   6.522321   7.035101   7.363543   2.134394
    19  H    4.935527   6.314245   6.284540   6.879165   2.177733
    20  H    4.384505   2.540858   3.216299   1.976225   6.942065
                   11         12         13         14         15
    11  C    0.000000
    12  H    4.267522   0.000000
    13  H    4.787463   4.305623   0.000000
    14  H    2.498210   3.716637   2.299744   0.000000
    15  H    6.625469   2.477347   4.956228   5.449737   0.000000
    16  H    6.978090   4.972615   2.478875   4.613236   4.297756
    17  H    1.096954   4.812465   4.788508   2.575686   7.072300
    18  H    1.089902   4.636779   5.820516   3.555012   7.093425
    19  H    1.096829   4.822157   4.752770   2.537013   7.076456
    20  H    8.400989   4.649676   5.327004   6.668406   2.388239
                   16         17         18         19         20
    16  H    0.000000
    17  H    7.062976   0.000000
    18  H    7.922887   1.777817   0.000000
    19  H    7.036448   1.776149   1.778558   0.000000
    20  H    3.538381   8.722666   9.048675   8.716757   0.000000
 Stoichiometry    C8H9NO2
 Framework group  C1[X(C8H9NO2)]
 Deg. of freedom    54
 Full point group                 C1      NOp   1
 Largest Abelian subgroup         C1      NOp   1
 Largest concise Abelian subgroup C1      NOp   1
                         Standard orientation:                         
 ---------------------------------------------------------------------
 Center     Atomic      Atomic             Coordinates (Angstroms)
 Number     Number       Type             X           Y           Z
 ---------------------------------------------------------------------
      1          8           0        3.993134   -0.243184    0.000967
      2          8           0       -2.483810   -1.460518   -0.001489
      3          7           0       -1.553994    0.658493   -0.001434
      4          6           0       -0.167739    0.358117   -0.000755
      5          6           0        0.332901   -0.955605   -0.000073
      6          6           0        0.738255    1.435260   -0.000782
      7          6           0        1.714160   -1.169867    0.000421
      8          6           0        2.113861    1.216803   -0.000183
      9          6           0        2.607991   -0.091042    0.000374
     10          6           0       -2.619963   -0.220231   -0.001188
     11          6           0       -3.984398    0.456645    0.002527
     12          1           0       -0.355142   -1.788401    0.000083
     13          1           0        0.365351    2.456511   -0.001201
     14          1           0       -1.785337    1.642041   -0.001743
     15          1           0        2.089406   -2.190190    0.000947
     16          1           0        2.810117    2.046705   -0.000123
     17          1           0       -4.124971    1.062424    0.906174
     18          1           0       -4.752056   -0.316576   -0.024288
     19          1           0       -4.109388    1.110404   -0.869258
     20          1           0        4.254983   -1.183233    0.001585
 ---------------------------------------------------------------------
 Rotational constants (GHZ):      3.5581921      0.5424190      0.4720671
 Standard basis: 6-31G (6D, 7F)
 There are   117 symmetry adapted cartesian basis functions of A   symmetry.
 There are   117 symmetry adapted basis functions of A   symmetry.
   117 basis functions,   278 primitive gaussians,   117 cartesian basis functions
    40 alpha electrons       40 beta electrons
       nuclear repulsion energy       568.2186973185 Hartrees.
 NAtoms=   20 NActive=   20 NUniq=   20 SFac= 1.00D+00 NAtFMM=   60 NAOKFM=F Big=F
 Integral buffers will be    262144 words long.
 Raffenetti 2 integral format.
 Two-electron integral symmetry is turned on.
 One-electron integrals computed using PRISM.
 NBasis=   117 RedAO= T EigKep=  5.95D-04  NBF=   117
 NBsUse=   117 1.00D-06 EigRej= -1.00D+00 NBFU=   117
 Initial guess from the checkpoint file:  "E:\Research\Paracetamol Project\paracetamol_opt_freq.chk"
 B after Tr=     0.000000    0.000000    0.000000
         Rot=    1.000000   -0.000037   -0.000001   -0.000316 Ang=  -0.04 deg.
 ExpMin= 1.61D-01 ExpMax= 5.48D+03 ExpMxC= 8.25D+02 IAcc=1 IRadAn=         1 AccDes= 0.00D+00
 Harris functional with IExCor=  402 and IRadAn=       1 diagonalized for initial guess.
 HarFok:  IExCor=  402 AccDes= 0.00D+00 IRadAn=         1 IDoV= 1 UseB2=F ITyADJ=14
 ICtDFT=  3500011 ScaDFX=  1.000000  1.000000  1.000000  1.000000
 FoFCou: FMM=F IPFlag=           0 FMFlag=      100000 FMFlg1=           0
         NFxFlg=           0 DoJE=T BraDBF=F KetDBF=T FulRan=T
         wScrn=  0.000000 ICntrl=     500 IOpCl=  0 I1Cent=   200000004 NGrid=           0
         NMat0=    1 NMatS0=      1 NMatT0=    0 NMatD0=    1 NMtDS0=    0 NMtDT0=    0
 Petite list used in FoFCou.
 Keep R1 ints in memory in canonical form, NReq=24825568.
 Requested convergence on RMS density matrix=1.00D-08 within 128 cycles.
 Requested convergence on MAX density matrix=1.00D-06.
 Requested convergence on             energy=1.00D-06.
 No special actions if energy rises.
 Integral accuracy reduced to 1.0D-05 until final iterations.
 Initial convergence to 1.0D-05 achieved.  Increase integral accuracy.
 SCF Done:  E(RB3LYP) =  -515.339282938     A.U. after   12 cycles
            NFock= 12  Conv=0.57D-08     -V/T= 2.0056
 Calling FoFJK, ICntrl=      2127 FMM=F ISym2X=0 I1Cent= 0 IOpClX= 0 NMat=1 NMatS=1 NMatT=0.
 ***** Axes restored to original set *****
 -------------------------------------------------------------------
 Center     Atomic                   Forces (Hartrees/Bohr)
 Number     Number              X              Y              Z
 -------------------------------------------------------------------
      1        8           0.000552143   -0.000225124    0.000000954
      2        8          -0.002982506    0.002436974   -0.000010427
      3        7          -0.001849883    0.000329475    0.000010564
      4        6           0.000820897    0.000712877   -0.000002790
      5        6           0.000907604    0.000179073   -0.000002828
      6        6           0.000180265   -0.000418903    0.000001067
      7        6           0.002247512   -0.000979838   -0.000010576
      8        6          -0.000715420   -0.000809132    0.000002953
      9        6          -0.002376006    0.001569151   -0.000005364
     10        6           0.001069774   -0.004417083   -0.000005860
     11        6           0.000978321    0.001700268    0.000006691
     12        1           0.000396181   -0.000642714    0.000008756
     13        1          -0.000260753    0.000063502    0.000002559
     14        1           0.000646933   -0.000399318    0.000004704
     15        1           0.000072807   -0.000080243    0.000001799
     16        1           0.000364267    0.000305740    0.000001023
     17        1           0.000210537    0.000108356    0.000092741
     18        1          -0.000168987    0.000110570    0.000006008
     19        1           0.000227600    0.000103044   -0.000104637
     20        1          -0.000321286    0.000353325    0.000002663
 -------------------------------------------------------------------
 Cartesian Forces:  Max     0.004417083 RMS     0.001021602

 GradGradGradGradGradGradGradGradGradGradGradGradGradGradGradGradGradGrad
 Berny optimization.
 Using GEDIIS/GDIIS optimizer.
 FormGI is forming the generalized inverse of G from B-inverse, IUseBI=4.
 GSVD:  received Info=                   1 from GESDD.
 Internal  Forces:  Max     0.004065285 RMS     0.001006819
 Search for a local minimum.
 Step number   3 out of a maximum of  101
 All quantities printed in internal units (Hartrees-Bohrs-Radians)
 Mixed Optimization -- RFO/linear search
 Update second derivatives using D2CorX and points    1    2    3
 DE= -4.97D-04 DEPred=-5.67D-04 R= 8.76D-01
 TightC=F SS=  1.41D+00  RLast= 6.73D-02 DXNew= 8.4853D-01 2.0198D-01
 Trust test= 8.76D-01 RLast= 6.73D-02 DXMaxT set to 5.05D-01
 ITU=  1  1  0
 Use linear search instead of GDIIS.
     Eigenvalues ---    0.00659   0.01068   0.01674   0.01714   0.01755
     Eigenvalues ---    0.02031   0.02156   0.02156   0.02157   0.02157
     Eigenvalues ---    0.02157   0.02158   0.02158   0.02167   0.02207
     Eigenvalues ---    0.07139   0.07459   0.12332   0.16000   0.16000
     Eigenvalues ---    0.16000   0.16000   0.16000   0.16000   0.16043
     Eigenvalues ---    0.16627   0.21804   0.22051   0.23044   0.23375
     Eigenvalues ---    0.24795   0.25000   0.26639   0.31850   0.34373
     Eigenvalues ---    0.34397   0.34432   0.34958   0.35167   0.35193
     Eigenvalues ---    0.35210   0.37280   0.41476   0.42448   0.44102
     Eigenvalues ---    0.44711   0.46196   0.46476   0.46491   0.47233
     Eigenvalues ---    0.51554   0.52823   0.55951   0.86953
 RFO step:  Lambda=-2.44525290D-04 EMin= 6.59011008D-03
 Quartic linear search produced a step of -0.12359.
 Iteration  1 RMS(Cart)=  0.01417140 RMS(Int)=  0.00007055
 Iteration  2 RMS(Cart)=  0.00010164 RMS(Int)=  0.00000052
 Iteration  3 RMS(Cart)=  0.00000000 RMS(Int)=  0.00000052
 Variable       Old X    -DE/DX   Delta X   Delta X   Delta X     New X
                                 (Linear)    (Quad)   (Total)
    R1        2.63328   0.00025  -0.00056   0.00261   0.00206   2.63534
    R2        1.84406   0.00026   0.00003   0.00040   0.00043   1.84450
    R3        2.35788   0.00221  -0.00115   0.00572   0.00457   2.36245
    R4        2.68043   0.00181   0.00054   0.00233   0.00287   2.68330
    R5        2.61059   0.00057   0.00167  -0.00401  -0.00234   2.60825
    R6        1.90936   0.00026  -0.00006   0.00053   0.00047   1.90983
    R7        2.65673   0.00035   0.00011   0.00064   0.00075   2.65748
    R8        2.65979   0.00011  -0.00033   0.00150   0.00117   2.66096
    R9        2.64142   0.00027   0.00079  -0.00173  -0.00094   2.64048
   R10        2.04139  -0.00075  -0.00037  -0.00078  -0.00115   2.04024
   R11        2.63210  -0.00041   0.00086  -0.00322  -0.00235   2.62974
   R12        2.05452   0.00002  -0.00014   0.00047   0.00033   2.05484
   R13        2.64750  -0.00243   0.00073  -0.00662  -0.00588   2.64162
   R14        2.05439  -0.00006   0.00001  -0.00015  -0.00014   2.05425
   R15        2.64198   0.00028  -0.00056   0.00211   0.00154   2.64353
   R16        2.04711   0.00002   0.00008  -0.00025  -0.00017   2.04695
   R17        2.87826  -0.00207   0.00090  -0.00795  -0.00706   2.87120
   R18        2.07294  -0.00016  -0.00006  -0.00017  -0.00023   2.07271
   R19        2.05962   0.00020  -0.00007   0.00065   0.00057   2.06019
   R20        2.07271  -0.00017  -0.00004  -0.00025  -0.00029   2.07241
    A1        1.95186  -0.00072   0.00205  -0.00936  -0.00731   1.94455
    A2        2.23880   0.00407   0.00365   0.00561   0.00925   2.24806
    A3        2.01519  -0.00271  -0.00034  -0.01076  -0.01110   2.00409
    A4        2.02919  -0.00135  -0.00330   0.00515   0.00184   2.03104
    A5        2.14828   0.00299   0.00100   0.00794   0.00894   2.15722
    A6        2.05672  -0.00254   0.00028  -0.01026  -0.00997   2.04675
    A7        2.07819  -0.00045  -0.00128   0.00232   0.00103   2.07922
    A8        2.08879   0.00025   0.00039  -0.00011   0.00028   2.08907
    A9        2.08699  -0.00025   0.00247  -0.00936  -0.00689   2.08011
   A10        2.10741   0.00001  -0.00286   0.00947   0.00660   2.11401
   A11        2.11261  -0.00008   0.00092  -0.00241  -0.00149   2.11113
   A12        2.09218  -0.00024  -0.00032  -0.00080  -0.00112   2.09107
   A13        2.07839   0.00032  -0.00061   0.00321   0.00260   2.08099
   A14        2.10879  -0.00024   0.00082  -0.00346  -0.00264   2.10615
   A15        2.07711   0.00022  -0.00029   0.00194   0.00165   2.07876
   A16        2.09728   0.00002  -0.00053   0.00152   0.00099   2.09827
   A17        2.08953  -0.00017   0.00065  -0.00262  -0.00197   2.08756
   A18        2.11135   0.00057  -0.00084   0.00567   0.00483   2.11618
   A19        2.08230  -0.00040   0.00020  -0.00305  -0.00286   2.07944
   A20        2.15329  -0.00081  -0.00041  -0.00086  -0.00127   2.15202
   A21        2.04144   0.00013   0.00191  -0.00542  -0.00352   2.03792
   A22        2.08846   0.00069  -0.00149   0.00628   0.00478   2.09324
   A23        2.15087   0.00398   0.00148   0.00882   0.01030   2.16117
   A24        2.14064  -0.00346   0.00013  -0.01206  -0.01193   2.12871
   A25        1.99167  -0.00052  -0.00161   0.00324   0.00163   1.99330
   A26        1.94145  -0.00026  -0.00009  -0.00105  -0.00114   1.94031
   A27        1.89191   0.00017   0.00076  -0.00122  -0.00046   1.89145
   A28        1.94446  -0.00027  -0.00009  -0.00110  -0.00119   1.94327
   A29        1.89841   0.00010  -0.00034   0.00179   0.00145   1.89987
   A30        1.88704   0.00017   0.00017  -0.00047  -0.00030   1.88674
   A31        1.89974   0.00011  -0.00044   0.00221   0.00177   1.90151
    D1       -0.00019   0.00000  -0.00002   0.00011   0.00008  -0.00011
    D2        3.14131   0.00000   0.00001   0.00012   0.00013   3.14144
    D3        0.00034   0.00000  -0.00002   0.00028   0.00026   0.00060
    D4       -3.14126   0.00000  -0.00004   0.00039   0.00035  -3.14092
    D5        3.14144   0.00000   0.00003  -0.00005  -0.00002   3.14141
    D6       -0.00016   0.00000   0.00001   0.00005   0.00006  -0.00010
    D7       -0.00116   0.00000   0.00021  -0.00121  -0.00100  -0.00216
    D8        3.13825  -0.00001   0.00020  -0.00112  -0.00091   3.13734
    D9        3.14093   0.00000   0.00016  -0.00087  -0.00071   3.14022
   D10       -0.00285  -0.00001   0.00015  -0.00077  -0.00062  -0.00347
   D11        3.14147   0.00000  -0.00002   0.00021   0.00020  -3.14152
   D12       -0.00015   0.00001  -0.00002   0.00030   0.00029   0.00014
   D13       -0.00012   0.00000   0.00000   0.00010   0.00011  -0.00001
   D14        3.14145   0.00001   0.00000   0.00019   0.00020  -3.14154
   D15       -3.14155   0.00000   0.00002  -0.00018  -0.00016   3.14147
   D16        0.00012   0.00000   0.00001  -0.00014  -0.00013  -0.00001
   D17        0.00003   0.00000   0.00000  -0.00008  -0.00008  -0.00005
   D18       -3.14148   0.00000  -0.00001  -0.00004  -0.00005  -3.14153
   D19        0.00011   0.00000  -0.00001  -0.00005  -0.00006   0.00005
   D20       -3.14159   0.00000   0.00000   0.00006   0.00006  -3.14153
   D21       -3.14146   0.00000  -0.00001  -0.00014  -0.00015   3.14157
   D22        0.00002   0.00000   0.00000  -0.00003  -0.00003  -0.00001
   D23        0.00007   0.00000   0.00000   0.00000   0.00000   0.00007
   D24       -3.14150   0.00000  -0.00001   0.00003   0.00001  -3.14149
   D25        3.14158   0.00000   0.00001  -0.00004  -0.00003   3.14155
   D26        0.00001   0.00000   0.00000  -0.00002  -0.00002  -0.00001
   D27        3.14149   0.00000   0.00004  -0.00002   0.00002   3.14151
   D28       -0.00001   0.00000   0.00001  -0.00003  -0.00002  -0.00003
   D29        0.00001   0.00000   0.00003  -0.00013  -0.00010  -0.00009
   D30       -3.14149   0.00000   0.00000  -0.00014  -0.00014   3.14155
   D31       -3.14159   0.00000  -0.00003   0.00004   0.00001  -3.14157
   D32       -0.00008   0.00000   0.00000   0.00005   0.00005  -0.00003
   D33       -0.00001   0.00000  -0.00002   0.00002   0.00000  -0.00001
   D34        3.14149   0.00000   0.00001   0.00003   0.00004   3.14153
   D35        2.05842   0.00007   0.00002  -0.00026  -0.00024   2.05817
   D36       -0.02802   0.00000   0.00000  -0.00106  -0.00105  -0.02907
   D37       -2.11791  -0.00008   0.00011  -0.00233  -0.00222  -2.12013
   D38       -1.08100   0.00006   0.00002  -0.00039  -0.00036  -1.08136
   D39        3.11575  -0.00001   0.00001  -0.00118  -0.00117   3.11457
   D40        1.02586  -0.00009   0.00011  -0.00246  -0.00234   1.02351
         Item               Value     Threshold  Converged?
 Maximum Force            0.004065     0.000450     NO 
 RMS     Force            0.001007     0.000300     NO 
 Maximum Displacement     0.066532     0.001800     NO 
 RMS     Displacement     0.014167     0.001200     NO 
 Predicted change in Energy=-1.311138D-04
 GradGradGradGradGradGradGradGradGradGradGradGradGradGradGradGradGradGrad

                          Input orientation:                          
 ---------------------------------------------------------------------
 Center     Atomic      Atomic             Coordinates (Angstroms)
 Number     Number       Type             X           Y           Z
 ---------------------------------------------------------------------
      1          8           0        3.922941    0.370553   -0.002002
      2          8           0       -2.629298    1.381703    0.004242
      3          7           0       -1.592080   -0.695112    0.003177
      4          6           0       -0.216196   -0.344146    0.001961
      5          6           0        0.248351    0.983187    0.001169
      6          6           0        0.718325   -1.397459    0.001442
      7          6           0        1.622654    1.235555   -0.000101
      8          6           0        2.086080   -1.140959    0.000109
      9          6           0        2.541208    0.181829   -0.000649
     10          6           0       -2.696029    0.133330    0.003161
     11          6           0       -4.026103   -0.601098   -0.001205
     12          1           0       -0.467460    1.791428    0.001619
     13          1           0        0.371305   -2.427974    0.001984
     14          1           0       -1.776532   -1.688774    0.003473
     15          1           0        1.971154    2.265241   -0.000648
     16          1           0        2.809051   -1.947575   -0.000388
     17          1           0       -4.138737   -1.211247   -0.905676
     18          1           0       -4.826906    0.138134    0.027083
     19          1           0       -4.120196   -1.261521    0.869245
     20          1           0        4.153067    1.319103   -0.002595
 ---------------------------------------------------------------------
                    Distance matrix (angstroms):
                    1          2          3          4          5
     1  O    0.000000
     2  O    6.629805   0.000000
     3  N    5.617039   2.321418   0.000000
     4  C    4.200389   2.966753   1.419942   0.000000
     5  C    3.725311   2.905115   2.490758   1.406277   0.000000
     6  C    3.659978   4.350900   2.414802   1.408118   2.426592
     7  C    2.457550   4.254466   3.749934   2.424217   1.397283
     8  C    2.378809   5.347769   3.705085   2.436265   2.808780
     9  C    1.394563   5.307905   4.225294   2.807122   2.428862
    10  C    6.623223   1.250156   1.380224   2.525383   3.064578
    11  C    8.008209   2.425406   2.435841   3.818563   4.558609
    12  H    4.614599   2.200324   2.729039   2.150305   1.079648
    13  H    4.521713   4.849461   2.618721   2.165063   3.413376
    14  H    6.060103   3.186697   1.010637   2.059776   3.352540
    15  H    2.720169   4.684530   4.632531   3.404909   2.147491
    16  H    2.571861   6.376500   4.575875   3.423902   3.891856
    17  H    8.264949   3.135243   2.752793   4.118495   4.988431
    18  H    8.752982   2.525167   3.340504   4.635933   5.145194
    19  H    8.253169   3.155573   2.731715   4.103045   4.987632
    20  H    0.976066   6.782658   6.088006   4.675134   3.919141
                    6          7          8          9         10
     6  C    0.000000
     7  C    2.783986   0.000000
     8  C    1.391599   2.421277   0.000000
     9  C    2.411857   1.397885   1.398895   0.000000
    10  C    3.741809   4.457122   4.948979   5.237464   0.000000
    11  C    4.810799   5.939844   6.135978   6.613815   1.519374
    12  H    3.402218   2.162770   3.888375   3.412169   2.777736
    13  H    1.087376   3.871347   2.144030   3.394047   3.996101
    14  H    2.511808   4.483991   3.901267   4.705534   2.040965
    15  H    3.871040   1.087063   3.408138   2.159993   5.131049
    16  H    2.161889   3.397036   1.083197   2.146182   5.885243
    17  H    4.944552   6.324598   6.290766   6.883415   2.171469
    18  H    5.753980   6.542316   7.030376   7.368296   2.131016
    19  H    4.917606   6.322301   6.267998   6.871265   2.173468
    20  H    4.379175   2.531793   3.213152   1.972685   6.950987
                   11         12         13         14         15
    11  C    0.000000
    12  H    4.288138   0.000000
    13  H    4.761794   4.301963   0.000000
    14  H    2.498725   3.718263   2.271481   0.000000
    15  H    6.647028   2.484218   4.958406   5.447880   0.000000
    16  H    6.966514   4.971486   2.484631   4.592882   4.295333
    17  H    1.096830   4.828822   4.758650   2.575771   7.087722
    18  H    1.090206   4.662489   5.797149   3.555690   7.123129
    19  H    1.096675   4.838983   4.720842   2.534733   7.092201
    20  H    8.401547   4.644608   5.323752   6.648872   2.378219
                   16         17         18         19         20
    16  H    0.000000
    17  H    7.045103   0.000000
    18  H    7.915729   1.778888   0.000000
    19  H    7.017222   1.775730   1.779806   0.000000
    20  H    3.532360   8.716206   9.057344   8.710144   0.000000
 Stoichiometry    C8H9NO2
 Framework group  C1[X(C8H9NO2)]
 Deg. of freedom    54
 Full point group                 C1      NOp   1
 Largest Abelian subgroup         C1      NOp   1
 Largest concise Abelian subgroup C1      NOp   1
                         Standard orientation:                         
 ---------------------------------------------------------------------
 Center     Atomic      Atomic             Coordinates (Angstroms)
 Number     Number       Type             X           Y           Z
 ---------------------------------------------------------------------
      1          8           0        3.997341   -0.231096    0.001424
      2          8           0       -2.517258   -1.461660   -0.002079
      3          7           0       -1.550351    0.648807   -0.001878
      4          6           0       -0.163459    0.344233   -0.001112
      5          6           0        0.345390   -0.966754   -0.000199
      6          6           0        0.735171    1.428328   -0.001188
      7          6           0        1.727391   -1.172840    0.000600
      8          6           0        2.110768    1.217893   -0.000322
      9          6           0        2.610050   -0.088868    0.000559
     10          6           0       -2.625864   -0.216231   -0.001253
     11          6           0       -3.979843    0.473129    0.003459
     12          1           0       -0.342882   -1.798573   -0.000193
     13          1           0        0.353749    2.446612   -0.001828
     14          1           0       -1.768060    1.635716   -0.002327
     15          1           0        2.110265   -2.190244    0.001245
     16          1           0        2.806250    2.048327   -0.000284
     17          1           0       -4.112559    1.079367    0.907835
     18          1           0       -4.755387   -0.292579   -0.024356
     19          1           0       -4.096384    1.129813   -0.867104
     20          1           0        4.259184   -1.171384    0.002142
 ---------------------------------------------------------------------
 Rotational constants (GHZ):      3.5591427      0.5404493      0.4705906
 Standard basis: 6-31G (6D, 7F)
 There are   117 symmetry adapted cartesian basis functions of A   symmetry.
 There are   117 symmetry adapted basis functions of A   symmetry.
   117 basis functions,   278 primitive gaussians,   117 cartesian basis functions
    40 alpha electrons       40 beta electrons
       nuclear repulsion energy       567.8232696165 Hartrees.
 NAtoms=   20 NActive=   20 NUniq=   20 SFac= 1.00D+00 NAtFMM=   60 NAOKFM=F Big=F
 Integral buffers will be    262144 words long.
 Raffenetti 2 integral format.
 Two-electron integral symmetry is turned on.
 One-electron integrals computed using PRISM.
 NBasis=   117 RedAO= T EigKep=  5.94D-04  NBF=   117
 NBsUse=   117 1.00D-06 EigRej= -1.00D+00 NBFU=   117
 Initial guess from the checkpoint file:  "E:\Research\Paracetamol Project\paracetamol_opt_freq.chk"
 B after Tr=     0.000000    0.000000    0.000000
         Rot=    1.000000   -0.000016   -0.000001    0.000273 Ang=  -0.03 deg.
 ExpMin= 1.61D-01 ExpMax= 5.48D+03 ExpMxC= 8.25D+02 IAcc=1 IRadAn=         1 AccDes= 0.00D+00
 Harris functional with IExCor=  402 and IRadAn=       1 diagonalized for initial guess.
 HarFok:  IExCor=  402 AccDes= 0.00D+00 IRadAn=         1 IDoV= 1 UseB2=F ITyADJ=14
 ICtDFT=  3500011 ScaDFX=  1.000000  1.000000  1.000000  1.000000
 FoFCou: FMM=F IPFlag=           0 FMFlag=      100000 FMFlg1=           0
         NFxFlg=           0 DoJE=T BraDBF=F KetDBF=T FulRan=T
         wScrn=  0.000000 ICntrl=     500 IOpCl=  0 I1Cent=   200000004 NGrid=           0
         NMat0=    1 NMatS0=      1 NMatT0=    0 NMatD0=    1 NMtDS0=    0 NMtDT0=    0
 Petite list used in FoFCou.
 Keep R1 ints in memory in canonical form, NReq=24825568.
 Requested convergence on RMS density matrix=1.00D-08 within 128 cycles.
 Requested convergence on MAX density matrix=1.00D-06.
 Requested convergence on             energy=1.00D-06.
 No special actions if energy rises.
 Integral accuracy reduced to 1.0D-05 until final iterations.
 Initial convergence to 1.0D-05 achieved.  Increase integral accuracy.
 SCF Done:  E(RB3LYP) =  -515.339376090     A.U. after   12 cycles
            NFock= 12  Conv=0.67D-08     -V/T= 2.0056
 Calling FoFJK, ICntrl=      2127 FMM=F ISym2X=0 I1Cent= 0 IOpClX= 0 NMat=1 NMatS=1 NMatT=0.
 ***** Axes restored to original set *****
 -------------------------------------------------------------------
 Center     Atomic                   Forces (Hartrees/Bohr)
 Number     Number              X              Y              Z
 -------------------------------------------------------------------
      1        8          -0.000225456    0.000538912    0.000001599
      2        8           0.000575155   -0.000462436   -0.000034413
      3        7          -0.000104692    0.001191270   -0.000000720
      4        6           0.000634294   -0.000010432    0.000002914
      5        6          -0.001965464   -0.001543763    0.000004101
      6        6           0.000056224   -0.000090630   -0.000001804
      7        6           0.000836615    0.000378790   -0.000002892
      8        6          -0.000200948    0.000124767    0.000001501
      9        6           0.000280668   -0.000820442   -0.000005138
     10        6           0.000087549   -0.000048394    0.000027009
     11        6          -0.000078885    0.000217948   -0.000005345
     12        1           0.000098870    0.000512759    0.000003953
     13        1          -0.000035147    0.000122510    0.000001991
     14        1          -0.000241144   -0.000038030   -0.000003662
     15        1          -0.000033669   -0.000043720   -0.000001001
     16        1           0.000158966    0.000093766    0.000001388
     17        1          -0.000112618   -0.000038608    0.000017988
     18        1           0.000013919   -0.000214594    0.000010505
     19        1          -0.000130225   -0.000058002   -0.000019227
     20        1           0.000385990    0.000188331    0.000001254
 -------------------------------------------------------------------
 Cartesian Forces:  Max     0.001965464 RMS     0.000434832

 GradGradGradGradGradGradGradGradGradGradGradGradGradGradGradGradGradGrad
 Berny optimization.
 Using GEDIIS/GDIIS optimizer.
 FormGI is forming the generalized inverse of G from B-inverse, IUseBI=4.
 GSVD:  received Info=                   1 from GESDD.
 Internal  Forces:  Max     0.001569479 RMS     0.000362916
 Search for a local minimum.
 Step number   4 out of a maximum of  101
 All quantities printed in internal units (Hartrees-Bohrs-Radians)
 Mixed Optimization -- En-DIIS/RFO-DIIS
 Update second derivatives using D2CorX and points    1    2    3    4
 DE= -9.32D-05 DEPred=-1.31D-04 R= 7.10D-01
 TightC=F SS=  1.41D+00  RLast= 3.23D-02 DXNew= 8.4853D-01 9.6867D-02
 Trust test= 7.10D-01 RLast= 3.23D-02 DXMaxT set to 5.05D-01
 ITU=  1  1  1  0
 Use linear search instead of GDIIS.
     Eigenvalues ---    0.00659   0.01076   0.01675   0.01714   0.01755
     Eigenvalues ---    0.02031   0.02156   0.02156   0.02157   0.02157
     Eigenvalues ---    0.02157   0.02158   0.02158   0.02167   0.02207
     Eigenvalues ---    0.07151   0.07464   0.12725   0.16000   0.16000
     Eigenvalues ---    0.16000   0.16000   0.16000   0.16007   0.16149
     Eigenvalues ---    0.16964   0.21997   0.22164   0.23027   0.23444
     Eigenvalues ---    0.24863   0.25510   0.26140   0.31385   0.34391
     Eigenvalues ---    0.34401   0.34434   0.35161   0.35173   0.35203
     Eigenvalues ---    0.35447   0.39279   0.40813   0.42549   0.44195
     Eigenvalues ---    0.44695   0.46263   0.46488   0.46623   0.48441
     Eigenvalues ---    0.52766   0.53114   0.58626   0.86851
 RFO step:  Lambda=-1.34235729D-05 EMin= 6.58615299D-03
 Quartic linear search produced a step of -0.22427.
 Iteration  1 RMS(Cart)=  0.00489847 RMS(Int)=  0.00000594
 Iteration  2 RMS(Cart)=  0.00001129 RMS(Int)=  0.00000017
 Iteration  3 RMS(Cart)=  0.00000000 RMS(Int)=  0.00000017
 Variable       Old X    -DE/DX   Delta X   Delta X   Delta X     New X
                                 (Linear)    (Quad)   (Total)
    R1        2.63534   0.00026  -0.00046   0.00054   0.00007   2.63542
    R2        1.84450   0.00027  -0.00010   0.00049   0.00040   1.84489
    R3        2.36245  -0.00043  -0.00102   0.00035  -0.00068   2.36178
    R4        2.68330  -0.00015  -0.00064   0.00061  -0.00003   2.68327
    R5        2.60825  -0.00063   0.00053  -0.00093  -0.00040   2.60785
    R6        1.90983   0.00008  -0.00011   0.00028   0.00017   1.91000
    R7        2.65748  -0.00106  -0.00017  -0.00156  -0.00173   2.65575
    R8        2.66096   0.00017  -0.00026   0.00038   0.00012   2.66107
    R9        2.64048   0.00081   0.00021   0.00132   0.00153   2.64202
   R10        2.04024   0.00032   0.00026   0.00021   0.00047   2.04071
   R11        2.62974   0.00045   0.00053   0.00044   0.00097   2.63071
   R12        2.05484  -0.00010  -0.00007  -0.00019  -0.00026   2.05458
   R13        2.64162   0.00001   0.00132  -0.00132   0.00000   2.64162
   R14        2.05425  -0.00005   0.00003  -0.00015  -0.00012   2.05413
   R15        2.64353   0.00009  -0.00035   0.00037   0.00002   2.64355
   R16        2.04695   0.00004   0.00004   0.00008   0.00012   2.04707
   R17        2.87120   0.00031   0.00158  -0.00091   0.00067   2.87187
   R18        2.07271   0.00002   0.00005  -0.00007  -0.00002   2.07269
   R19        2.06019  -0.00015  -0.00013  -0.00018  -0.00031   2.05988
   R20        2.07241   0.00003   0.00007  -0.00005   0.00001   2.07243
    A1        1.94455   0.00062   0.00164   0.00164   0.00328   1.94783
    A2        2.24806  -0.00083  -0.00208   0.00110  -0.00098   2.24708
    A3        2.00409   0.00064   0.00249  -0.00064   0.00185   2.00594
    A4        2.03104   0.00019  -0.00041  -0.00045  -0.00087   2.03017
    A5        2.15722  -0.00157  -0.00201  -0.00198  -0.00399   2.15323
    A6        2.04675   0.00141   0.00224   0.00182   0.00405   2.05080
    A7        2.07922   0.00016  -0.00023   0.00017  -0.00006   2.07916
    A8        2.08907   0.00005  -0.00006   0.00028   0.00022   2.08929
    A9        2.08011   0.00040   0.00154   0.00135   0.00289   2.08300
   A10        2.11401  -0.00045  -0.00148  -0.00163  -0.00311   2.11090
   A11        2.11113  -0.00009   0.00033  -0.00042  -0.00009   2.11104
   A12        2.09107  -0.00003   0.00025  -0.00057  -0.00032   2.09075
   A13        2.08099   0.00012  -0.00058   0.00099   0.00041   2.08140
   A14        2.10615   0.00006   0.00059  -0.00020   0.00039   2.10655
   A15        2.07876  -0.00005  -0.00037   0.00017  -0.00020   2.07856
   A16        2.09827  -0.00002  -0.00022   0.00003  -0.00019   2.09808
   A17        2.08756   0.00007   0.00044   0.00010   0.00054   2.08809
   A18        2.11618   0.00014  -0.00108   0.00155   0.00047   2.11665
   A19        2.07944  -0.00022   0.00064  -0.00165  -0.00101   2.07844
   A20        2.15202  -0.00047   0.00028  -0.00212  -0.00184   2.15018
   A21        2.03792   0.00072   0.00079   0.00205   0.00284   2.04076
   A22        2.09324  -0.00025  -0.00107   0.00007  -0.00100   2.09225
   A23        2.16117  -0.00103  -0.00231   0.00048  -0.00183   2.15934
   A24        2.12871   0.00039   0.00268  -0.00207   0.00061   2.12931
   A25        1.99330   0.00064  -0.00037   0.00159   0.00123   1.99453
   A26        1.94031   0.00011   0.00026   0.00012   0.00038   1.94068
   A27        1.89145   0.00015   0.00010   0.00091   0.00102   1.89247
   A28        1.94327   0.00015   0.00027   0.00027   0.00054   1.94381
   A29        1.89987  -0.00013  -0.00033  -0.00038  -0.00071   1.89916
   A30        1.88674  -0.00013   0.00007  -0.00052  -0.00045   1.88629
   A31        1.90151  -0.00015  -0.00040  -0.00044  -0.00083   1.90067
    D1       -0.00011   0.00000  -0.00002   0.00001  -0.00001  -0.00011
    D2        3.14144   0.00000  -0.00003   0.00013   0.00010   3.14154
    D3        0.00060   0.00000  -0.00006   0.00023   0.00017   0.00076
    D4       -3.14092   0.00000  -0.00008   0.00021   0.00013  -3.14079
    D5        3.14141   0.00000   0.00001   0.00020   0.00020  -3.14157
    D6       -0.00010   0.00000  -0.00001   0.00018   0.00016   0.00006
    D7       -0.00216   0.00001   0.00022   0.00066   0.00089  -0.00127
    D8        3.13734   0.00000   0.00020  -0.00010   0.00011   3.13745
    D9        3.14022   0.00001   0.00016   0.00069   0.00085   3.14107
   D10       -0.00347   0.00000   0.00014  -0.00007   0.00007  -0.00340
   D11       -3.14152   0.00000  -0.00004   0.00005   0.00001  -3.14151
   D12        0.00014   0.00000  -0.00006   0.00012   0.00006   0.00019
   D13       -0.00001   0.00000  -0.00002   0.00007   0.00005   0.00004
   D14       -3.14154   0.00000  -0.00004   0.00014   0.00010  -3.14144
   D15        3.14147   0.00000   0.00004  -0.00002   0.00002   3.14149
   D16       -0.00001   0.00000   0.00003  -0.00004  -0.00002  -0.00003
   D17       -0.00005   0.00000   0.00002  -0.00004  -0.00002  -0.00007
   D18       -3.14153   0.00000   0.00001  -0.00006  -0.00005  -3.14158
   D19        0.00005   0.00000   0.00001  -0.00006  -0.00004   0.00000
   D20       -3.14153   0.00000  -0.00001   0.00002   0.00001  -3.14153
   D21        3.14157   0.00000   0.00003  -0.00012  -0.00009   3.14148
   D22       -0.00001   0.00000   0.00001  -0.00005  -0.00004  -0.00005
   D23        0.00007   0.00000   0.00000  -0.00001  -0.00001   0.00005
   D24       -3.14149   0.00000   0.00000  -0.00004  -0.00004  -3.14153
   D25        3.14155   0.00000   0.00001   0.00001   0.00002   3.14157
   D26       -0.00001   0.00000   0.00000  -0.00001  -0.00001  -0.00002
   D27        3.14151   0.00000   0.00000   0.00012   0.00012  -3.14156
   D28       -0.00003   0.00000   0.00000   0.00000   0.00001  -0.00002
   D29       -0.00009   0.00000   0.00002   0.00004   0.00007  -0.00003
   D30        3.14155   0.00000   0.00003  -0.00007  -0.00004   3.14151
   D31       -3.14157   0.00000   0.00000  -0.00008  -0.00008   3.14153
   D32       -0.00003   0.00000  -0.00001   0.00003   0.00002  -0.00001
   D33       -0.00001   0.00000   0.00000  -0.00005  -0.00005  -0.00007
   D34        3.14153   0.00000  -0.00001   0.00006   0.00005   3.14158
   D35        2.05817  -0.00002   0.00005  -0.00121  -0.00115   2.05702
   D36       -0.02907  -0.00001   0.00024  -0.00139  -0.00115  -0.03023
   D37       -2.12013  -0.00001   0.00050  -0.00160  -0.00110  -2.12123
   D38       -1.08136  -0.00001   0.00008  -0.00047  -0.00038  -1.08175
   D39        3.11457   0.00000   0.00026  -0.00065  -0.00039   3.11419
   D40        1.02351   0.00000   0.00053  -0.00086  -0.00033   1.02318
         Item               Value     Threshold  Converged?
 Maximum Force            0.001569     0.000450     NO 
 RMS     Force            0.000363     0.000300     NO 
 Maximum Displacement     0.015142     0.001800     NO 
 RMS     Displacement     0.004900     0.001200     NO 
 Predicted change in Energy=-1.494030D-05
 GradGradGradGradGradGradGradGradGradGradGradGradGradGradGradGradGradGrad

                          Input orientation:                          
 ---------------------------------------------------------------------
 Center     Atomic      Atomic             Coordinates (Angstroms)
 Number     Number       Type             X           Y           Z
 ---------------------------------------------------------------------
      1          8           0        3.922449    0.377302   -0.001945
      2          8           0       -2.621285    1.380506    0.003139
      3          7           0       -1.592250   -0.698554    0.003195
      4          6           0       -0.215755   -0.350051    0.001958
      5          6           0        0.245567    0.977439    0.001248
      6          6           0        0.721190   -1.401290    0.001378
      7          6           0        1.620053    1.233284   -0.000064
      8          6           0        2.088842   -1.141475    0.000038
      9          6           0        2.541570    0.182147   -0.000683
     10          6           0       -2.693735    0.132809    0.003093
     11          6           0       -4.027040   -0.596477   -0.001068
     12          1           0       -0.469851    1.786360    0.001833
     13          1           0        0.376221   -2.432349    0.001907
     14          1           0       -1.780327   -1.691630    0.003613
     15          1           0        1.965831    2.263820   -0.000541
     16          1           0        2.814129   -1.946095   -0.000468
     17          1           0       -4.142698   -1.206143   -0.905470
     18          1           0       -4.825515    0.145017    0.027519
     19          1           0       -4.124114   -1.256791    0.869147
     20          1           0        4.151320    1.326370   -0.002429
 ---------------------------------------------------------------------
                    Distance matrix (angstroms):
                    1          2          3          4          5
     1  O    0.000000
     2  O    6.620189   0.000000
     3  N    5.618665   2.319786   0.000000
     4  C    4.201641   2.963344   1.419927   0.000000
     5  C    3.725538   2.895050   2.487273   1.405364   0.000000
     6  C    3.662166   4.348624   2.417818   1.408179   2.425813
     7  C    2.456366   4.243894   3.748453   2.424283   1.398095
     8  C    2.380924   5.342817   3.707644   2.436703   2.808461
     9  C    1.394602   5.300109   4.226596   2.808217   2.429840
    10  C    6.620702   1.249799   1.380013   2.524587   3.058251
    11  C    8.008909   2.425825   2.436933   3.819245   4.553284
    12  H    4.612782   2.189381   2.726643   2.151469   1.079897
    13  H    4.524366   4.850042   2.623151   2.164809   3.412290
    14  H    6.066479   3.185158   1.010729   2.061001   3.350848
    15  H    2.717960   4.671391   4.629861   3.404651   2.148042
    16  H    2.574208   6.372599   4.579579   3.424552   3.891601
    17  H    8.268630   3.135446   2.754652   4.120340   4.984681
    18  H    8.751097   2.526986   3.341588   4.636338   5.139017
    19  H    8.256890   3.156548   2.733466   4.104809   4.983888
    20  H    0.976275   6.772824   6.090069   4.677794   3.921310
                    6          7          8          9         10
     6  C    0.000000
     7  C    2.783692   0.000000
     8  C    1.392113   2.420587   0.000000
     9  C    2.412687   1.397885   1.398905   0.000000
    10  C    3.743685   4.451946   4.949429   5.235539   0.000000
    11  C    4.815955   5.936134   6.140117   6.614597   1.519729
    12  H    3.402895   2.161850   3.888333   3.412061   2.771262
    13  H    1.087238   3.870916   2.144628   3.394750   4.000583
    14  H    2.518311   4.485279   3.908088   4.710611   2.040317
    15  H    3.870680   1.086999   3.407516   2.159824   5.123746
    16  H    2.162686   3.396214   1.083261   2.145623   5.887140
    17  H    4.951551   6.322964   6.297318   6.886612   2.172043
    18  H    5.758271   6.536852   7.033075   7.367232   2.131955
    19  H    4.924517   6.320716   6.274509   6.874480   2.174171
    20  H    4.382458   2.532979   3.216221   1.974980   6.948338
                   11         12         13         14         15
    11  C    0.000000
    12  H    4.281532   0.000000
    13  H    4.770654   4.302714   0.000000
    14  H    2.499421   3.716688   2.280212   0.000000
    15  H    6.640467   2.482039   4.957910   5.447872   0.000000
    16  H    6.973024   4.971494   2.485929   4.601499   4.294530
    17  H    1.096820   4.823700   4.769438   2.577388   7.083337
    18  H    1.090042   4.654726   5.805301   3.556264   7.114246
    19  H    1.096682   4.833905   4.731496   2.536054   7.087911
    20  H    8.401364   4.644011   5.327228   6.655284   2.378062
                   16         17         18         19         20
    16  H    0.000000
    17  H    7.054360   0.000000
    18  H    7.920713   1.778297   0.000000
    19  H    7.026420   1.775437   1.779148   0.000000
    20  H    3.535125   8.718936   9.054284   8.712931   0.000000
 Stoichiometry    C8H9NO2
 Framework group  C1[X(C8H9NO2)]
 Deg. of freedom    54
 Full point group                 C1      NOp   1
 Largest Abelian subgroup         C1      NOp   1
 Largest concise Abelian subgroup C1      NOp   1
                         Standard orientation:                         
 ---------------------------------------------------------------------
 Center     Atomic      Atomic             Coordinates (Angstroms)
 Number     Number       Type             X           Y           Z
 ---------------------------------------------------------------------
      1          8           0        3.996352   -0.237683    0.001392
      2          8           0       -2.509757   -1.461386   -0.001364
      3          7           0       -1.551547    0.651252   -0.001952
      4          6           0       -0.164064    0.349451   -0.001156
      5          6           0        0.341843   -0.961696   -0.000490
      6          6           0        0.736832    1.431743   -0.000988
      7          6           0        1.724188   -1.170960    0.000373
      8          6           0        2.112481    1.218280   -0.000094
      9          6           0        2.609667   -0.089290    0.000586
     10          6           0       -2.624317   -0.216849   -0.001401
     11          6           0       -3.981497    0.466977    0.003154
     12          1           0       -0.345839   -1.794325   -0.000760
     13          1           0        0.357227    2.450559   -0.001487
     14          1           0       -1.773067    1.637408   -0.002391
     15          1           0        2.104584   -2.189226    0.000821
     16          1           0        2.810171    2.046944    0.000094
     17          1           0       -4.117379    1.072477    0.907544
     18          1           0       -4.754475   -0.301071   -0.025095
     19          1           0       -4.101118    1.123550   -0.867085
     20          1           0        4.257156   -1.178477    0.001880
 ---------------------------------------------------------------------
 Rotational constants (GHZ):      3.5588296      0.5408051      0.4708544
 Standard basis: 6-31G (6D, 7F)
 There are   117 symmetry adapted cartesian basis functions of A   symmetry.
 There are   117 symmetry adapted basis functions of A   symmetry.
   117 basis functions,   278 primitive gaussians,   117 cartesian basis functions
    40 alpha electrons       40 beta electrons
       nuclear repulsion energy       567.8963280251 Hartrees.
 NAtoms=   20 NActive=   20 NUniq=   20 SFac= 1.00D+00 NAtFMM=   60 NAOKFM=F Big=F
 Integral buffers will be    262144 words long.
 Raffenetti 2 integral format.
 Two-electron integral symmetry is turned on.
 One-electron integrals computed using PRISM.
 NBasis=   117 RedAO= T EigKep=  5.94D-04  NBF=   117
 NBsUse=   117 1.00D-06 EigRej= -1.00D+00 NBFU=   117
 Initial guess from the checkpoint file:  "E:\Research\Paracetamol Project\paracetamol_opt_freq.chk"
 B after Tr=     0.000000    0.000000    0.000000
         Rot=    1.000000   -0.000011    0.000001   -0.000019 Ang=   0.00 deg.
 Keep R1 ints in memory in canonical form, NReq=24825568.
 Requested convergence on RMS density matrix=1.00D-08 within 128 cycles.
 Requested convergence on MAX density matrix=1.00D-06.
 Requested convergence on             energy=1.00D-06.
 No special actions if energy rises.
 SCF Done:  E(RB3LYP) =  -515.339391718     A.U. after    9 cycles
            NFock=  9  Conv=0.51D-08     -V/T= 2.0056
 Calling FoFJK, ICntrl=      2127 FMM=F ISym2X=0 I1Cent= 0 IOpClX= 0 NMat=1 NMatS=1 NMatT=0.
 ***** Axes restored to original set *****
 -------------------------------------------------------------------
 Center     Atomic                   Forces (Hartrees/Bohr)
 Number     Number              X              Y              Z
 -------------------------------------------------------------------
      1        8          -0.000005949   -0.000018194   -0.000002497
      2        8          -0.000000652    0.000118995    0.000011735
      3        7          -0.000108919    0.000164979    0.000029479
      4        6           0.000295441    0.000113106   -0.000004316
      5        6          -0.000456857   -0.000261038    0.000005041
      6        6           0.000061238   -0.000031594   -0.000002685
      7        6           0.000187605    0.000137123    0.000001322
      8        6          -0.000101941   -0.000022750    0.000000483
      9        6           0.000065824   -0.000004597    0.000002178
     10        6           0.000050569   -0.000223099   -0.000068101
     11        6           0.000074763    0.000077607    0.000030817
     12        1           0.000093802    0.000084981   -0.000004464
     13        1           0.000000031    0.000022061    0.000000935
     14        1          -0.000043260   -0.000026781    0.000007011
     15        1          -0.000040150    0.000002670   -0.000000875
     16        1           0.000033756    0.000012345    0.000001211
     17        1          -0.000032413   -0.000035883   -0.000013339
     18        1           0.000032720   -0.000021679    0.000006717
     19        1          -0.000038551   -0.000057774   -0.000001512
     20        1          -0.000067058   -0.000030476    0.000000861
 -------------------------------------------------------------------
 Cartesian Forces:  Max     0.000456857 RMS     0.000100961

 GradGradGradGradGradGradGradGradGradGradGradGradGradGradGradGradGradGrad
 Berny optimization.
 Using GEDIIS/GDIIS optimizer.
 FormGI is forming the generalized inverse of G from B-inverse, IUseBI=4.
 GSVD:  received Info=                   1 from GESDD.
 Internal  Forces:  Max     0.000173344 RMS     0.000048478
 Search for a local minimum.
 Step number   5 out of a maximum of  101
 All quantities printed in internal units (Hartrees-Bohrs-Radians)
 Mixed Optimization -- En-DIIS/RFO-DIIS
 Swapping is turned off.
 Update second derivatives using D2CorX and points    1    2    3    4    5
 DE= -1.56D-05 DEPred=-1.49D-05 R= 1.05D+00
 TightC=F SS=  1.41D+00  RLast= 1.01D-02 DXNew= 8.4853D-01 3.0414D-02
 Trust test= 1.05D+00 RLast= 1.01D-02 DXMaxT set to 5.05D-01
 ITU=  1  1  1  1  0
     Eigenvalues ---    0.00656   0.01078   0.01675   0.01714   0.01755
     Eigenvalues ---    0.02031   0.02156   0.02156   0.02157   0.02157
     Eigenvalues ---    0.02157   0.02158   0.02158   0.02167   0.02207
     Eigenvalues ---    0.07148   0.07456   0.13035   0.15275   0.16000
     Eigenvalues ---    0.16000   0.16000   0.16000   0.16002   0.16208
     Eigenvalues ---    0.17171   0.21956   0.22241   0.22809   0.23326
     Eigenvalues ---    0.24848   0.25675   0.26391   0.31289   0.34395
     Eigenvalues ---    0.34415   0.34430   0.35155   0.35163   0.35202
     Eigenvalues ---    0.35441   0.39442   0.41399   0.42528   0.43652
     Eigenvalues ---    0.44680   0.45904   0.46374   0.46714   0.47453
     Eigenvalues ---    0.52763   0.54021   0.57887   0.87456
 En-DIIS/RFO-DIIS IScMMF=        0 using points:     5    4
 RFO step:  Lambda=-4.22210017D-07.
 DidBck=F Rises=F RFO-DIIS coefs:    1.04509   -0.04509
 Iteration  1 RMS(Cart)=  0.00078189 RMS(Int)=  0.00000066
 Iteration  2 RMS(Cart)=  0.00000072 RMS(Int)=  0.00000009
 Variable       Old X    -DE/DX   Delta X   Delta X   Delta X     New X
                                 (Linear)    (Quad)   (Total)
    R1        2.63542  -0.00008   0.00000  -0.00013  -0.00013   2.63528
    R2        1.84489  -0.00005   0.00002  -0.00010  -0.00008   1.84481
    R3        2.36178   0.00012  -0.00003   0.00018   0.00015   2.36193
    R4        2.68327   0.00006   0.00000   0.00016   0.00016   2.68344
    R5        2.60785  -0.00014  -0.00002  -0.00033  -0.00035   2.60750
    R6        1.91000   0.00003   0.00001   0.00008   0.00008   1.91009
    R7        2.65575  -0.00017  -0.00008  -0.00037  -0.00045   2.65530
    R8        2.66107   0.00001   0.00001   0.00001   0.00001   2.66108
    R9        2.64202   0.00017   0.00007   0.00038   0.00044   2.64246
   R10        2.04071   0.00000   0.00002  -0.00001   0.00001   2.04072
   R11        2.63071  -0.00008   0.00004  -0.00022  -0.00018   2.63053
   R12        2.05458  -0.00002  -0.00001  -0.00005  -0.00006   2.05452
   R13        2.64162   0.00006   0.00000   0.00011   0.00011   2.64173
   R14        2.05413  -0.00001  -0.00001  -0.00004  -0.00004   2.05409
   R15        2.64355   0.00000   0.00000   0.00001   0.00001   2.64356
   R16        2.04707   0.00002   0.00001   0.00004   0.00005   2.04711
   R17        2.87187  -0.00002   0.00003  -0.00012  -0.00009   2.87178
   R18        2.07269   0.00003   0.00000   0.00010   0.00009   2.07278
   R19        2.05988  -0.00003  -0.00001  -0.00010  -0.00011   2.05977
   R20        2.07243   0.00003   0.00000   0.00010   0.00010   2.07253
    A1        1.94783  -0.00010   0.00015  -0.00072  -0.00057   1.94726
    A2        2.24708   0.00004  -0.00004   0.00027   0.00022   2.24730
    A3        2.00594   0.00002   0.00008   0.00007   0.00015   2.00609
    A4        2.03017  -0.00006  -0.00004  -0.00034  -0.00038   2.02979
    A5        2.15323  -0.00010  -0.00018  -0.00030  -0.00048   2.15274
    A6        2.05080   0.00000   0.00018  -0.00008   0.00011   2.05091
    A7        2.07916   0.00010   0.00000   0.00038   0.00038   2.07953
    A8        2.08929  -0.00005   0.00001  -0.00021  -0.00020   2.08909
    A9        2.08300   0.00016   0.00013   0.00089   0.00102   2.08402
   A10        2.11090  -0.00011  -0.00014  -0.00068  -0.00082   2.11008
   A11        2.11104  -0.00001   0.00000  -0.00012  -0.00012   2.11091
   A12        2.09075   0.00000  -0.00001  -0.00002  -0.00003   2.09072
   A13        2.08140   0.00002   0.00002   0.00014   0.00015   2.08156
   A14        2.10655  -0.00005   0.00002  -0.00016  -0.00014   2.10641
   A15        2.07856  -0.00001  -0.00001  -0.00015  -0.00016   2.07840
   A16        2.09808   0.00006  -0.00001   0.00031   0.00030   2.09838
   A17        2.08809   0.00000   0.00002  -0.00005  -0.00003   2.08807
   A18        2.11665   0.00003   0.00002   0.00024   0.00026   2.11691
   A19        2.07844  -0.00003  -0.00005  -0.00019  -0.00023   2.07820
   A20        2.15018   0.00001  -0.00008   0.00003  -0.00006   2.15013
   A21        2.04076  -0.00003   0.00013  -0.00019  -0.00006   2.04070
   A22        2.09225   0.00002  -0.00005   0.00016   0.00011   2.09236
   A23        2.15934   0.00000  -0.00008   0.00009   0.00001   2.15935
   A24        2.12931  -0.00001   0.00003  -0.00012  -0.00009   2.12923
   A25        1.99453   0.00001   0.00006   0.00003   0.00008   1.99461
   A26        1.94068   0.00004   0.00002   0.00026   0.00027   1.94096
   A27        1.89247  -0.00004   0.00005  -0.00027  -0.00023   1.89224
   A28        1.94381   0.00007   0.00002   0.00049   0.00051   1.94432
   A29        1.89916  -0.00001  -0.00003  -0.00009  -0.00013   1.89903
   A30        1.88629  -0.00005  -0.00002  -0.00032  -0.00034   1.88595
   A31        1.90067  -0.00001  -0.00004  -0.00007  -0.00011   1.90057
    D1       -0.00011   0.00000   0.00000   0.00006   0.00006  -0.00005
    D2        3.14154   0.00000   0.00000   0.00001   0.00001   3.14155
    D3        0.00076   0.00000   0.00001   0.00003   0.00004   0.00080
    D4       -3.14079   0.00000   0.00001   0.00001   0.00002  -3.14077
    D5       -3.14157   0.00000   0.00001   0.00012   0.00013  -3.14145
    D6        0.00006   0.00000   0.00001   0.00010   0.00011   0.00017
    D7       -0.00127  -0.00001   0.00004  -0.00108  -0.00104  -0.00231
    D8        3.13745   0.00001   0.00000   0.00075   0.00076   3.13821
    D9        3.14107  -0.00001   0.00004  -0.00117  -0.00113   3.13994
   D10       -0.00340   0.00001   0.00000   0.00067   0.00067  -0.00273
   D11       -3.14151   0.00000   0.00000  -0.00004  -0.00004  -3.14155
   D12        0.00019   0.00000   0.00000  -0.00011  -0.00011   0.00009
   D13        0.00004   0.00000   0.00000  -0.00002  -0.00002   0.00002
   D14       -3.14144   0.00000   0.00000  -0.00009  -0.00009  -3.14153
   D15        3.14149   0.00000   0.00000   0.00003   0.00003   3.14152
   D16       -0.00003   0.00000   0.00000   0.00001   0.00001  -0.00001
   D17       -0.00007   0.00000   0.00000   0.00001   0.00001  -0.00006
   D18       -3.14158   0.00000   0.00000   0.00000  -0.00001  -3.14159
   D19        0.00000   0.00000   0.00000   0.00002   0.00002   0.00002
   D20       -3.14153   0.00000   0.00000  -0.00003  -0.00003  -3.14156
   D21        3.14148   0.00000   0.00000   0.00009   0.00009   3.14157
   D22       -0.00005   0.00000   0.00000   0.00004   0.00004  -0.00001
   D23        0.00005   0.00000   0.00000   0.00000   0.00000   0.00005
   D24       -3.14153   0.00000   0.00000   0.00000  -0.00001  -3.14154
   D25        3.14157   0.00000   0.00000   0.00001   0.00002   3.14158
   D26       -0.00002   0.00000   0.00000   0.00001   0.00001  -0.00001
   D27       -3.14156   0.00000   0.00001  -0.00006  -0.00005   3.14158
   D28       -0.00002   0.00000   0.00000  -0.00001  -0.00001  -0.00003
   D29       -0.00003   0.00000   0.00000  -0.00001   0.00000  -0.00003
   D30        3.14151   0.00000   0.00000   0.00004   0.00004   3.14155
   D31        3.14153   0.00000   0.00000   0.00005   0.00004   3.14158
   D32       -0.00001   0.00000   0.00000   0.00000   0.00000  -0.00001
   D33       -0.00007   0.00000   0.00000   0.00005   0.00005  -0.00002
   D34        3.14158   0.00000   0.00000   0.00000   0.00000   3.14158
   D35        2.05702  -0.00001  -0.00005  -0.00066  -0.00071   2.05631
   D36       -0.03023   0.00000  -0.00005  -0.00052  -0.00058  -0.03080
   D37       -2.12123   0.00000  -0.00005  -0.00056  -0.00061  -2.12184
   D38       -1.08175  -0.00002  -0.00002  -0.00246  -0.00248  -1.08423
   D39        3.11419  -0.00001  -0.00002  -0.00233  -0.00234   3.11184
   D40        1.02318  -0.00002  -0.00002  -0.00236  -0.00238   1.02081
         Item               Value     Threshold  Converged?
 Maximum Force            0.000173     0.000450     YES
 RMS     Force            0.000048     0.000300     YES
 Maximum Displacement     0.004133     0.001800     NO 
 RMS     Displacement     0.000782     0.001200     YES
 Predicted change in Energy=-5.061862D-07
 GradGradGradGradGradGradGradGradGradGradGradGradGradGradGradGradGradGrad

                          Input orientation:                          
 ---------------------------------------------------------------------
 Center     Atomic      Atomic             Coordinates (Angstroms)
 Number     Number       Type             X           Y           Z
 ---------------------------------------------------------------------
      1          8           0        3.922328    0.377233   -0.001553
      2          8           0       -2.621158    1.380549    0.003162
      3          7           0       -1.592165   -0.698432    0.002752
      4          6           0       -0.215525   -0.350152    0.001694
      5          6           0        0.245315    0.977252    0.000838
      6          6           0        0.721348   -1.401463    0.001481
      7          6           0        1.620007    1.233281   -0.000232
      8          6           0        2.088893   -1.141596    0.000374
      9          6           0        2.541521    0.182065   -0.000483
     10          6           0       -2.693542    0.132769    0.002278
     11          6           0       -4.026833   -0.596448   -0.000922
     12          1           0       -0.469525    1.786690    0.001059
     13          1           0        0.376283   -2.432454    0.002132
     14          1           0       -1.780581   -1.691489    0.003424
     15          1           0        1.965506    2.263886   -0.000856
     16          1           0        2.814447   -1.946009    0.000156
     17          1           0       -4.144111   -1.204997   -0.905929
     18          1           0       -4.825029    0.145175    0.029706
     19          1           0       -4.123209   -1.258054    0.868458
     20          1           0        4.150629    1.326393   -0.002137
 ---------------------------------------------------------------------
                    Distance matrix (angstroms):
                    1          2          3          4          5
     1  O    0.000000
     2  O    6.619960   0.000000
     3  N    5.618426   2.319695   0.000000
     4  C    4.201301   2.963511   1.420014   0.000000
     5  C    3.725648   2.894706   2.486816   1.405125   0.000000
     6  C    3.661973   4.348786   2.417974   1.408185   2.425880
     7  C    2.456319   4.243722   3.748275   2.424137   1.398330
     8  C    2.380826   5.342827   3.707640   2.436540   2.808611
     9  C    1.394532   5.299965   4.226422   2.807946   2.429997
    10  C    6.620386   1.249878   1.379828   2.524635   3.057783
    11  C    8.008571   2.425790   2.436806   3.819259   4.552778
    12  H    4.612478   2.189630   2.726932   2.151886   1.079901
    13  H    4.524245   4.850118   2.623285   2.164767   3.412221
    14  H    6.066532   3.184963   1.010774   2.061210   3.350588
    15  H    2.718200   4.670951   4.629510   3.404423   2.148135
    16  H    2.573880   6.372739   4.579813   3.424543   3.891773
    17  H    8.269751   3.135424   2.755855   4.121690   4.985128
    18  H    8.750491   2.526639   3.341229   4.636126   5.138247
    19  H    8.256013   3.157075   2.732912   4.104335   4.983309
    20  H    0.976230   6.772005   6.089304   4.676977   3.920890
                    6          7          8          9         10
     6  C    0.000000
     7  C    2.783786   0.000000
     8  C    1.392017   2.420722   0.000000
     9  C    2.412591   1.397943   1.398910   0.000000
    10  C    3.743707   4.451722   4.949313   5.235296   0.000000
    11  C    4.815940   5.935883   6.139975   6.614330   1.519682
    12  H    3.403308   2.161575   3.888491   3.411924   2.771589
    13  H    1.087204   3.870977   2.144610   3.394697   4.000524
    14  H    2.518684   4.485341   3.908353   4.710709   2.039955
    15  H    3.870752   1.086976   3.407717   2.160040   5.123318
    16  H    2.162775   3.396259   1.083286   2.145504   5.887212
    17  H    4.953250   6.323807   6.298869   6.887775   2.172236
    18  H    5.758054   6.536311   7.032707   7.366705   2.131700
    19  H    4.923611   6.320277   6.273543   6.873691   2.174536
    20  H    4.381915   2.532335   3.215856   1.974517   6.947477
                   11         12         13         14         15
    11  C    0.000000
    12  H    4.281798   0.000000
    13  H    4.770572   4.303089   0.000000
    14  H    2.498956   3.717069   2.280590   0.000000
    15  H    6.640002   2.481349   4.957948   5.447768   0.000000
    16  H    6.973122   4.971672   2.486217   4.602073   4.294639
    17  H    1.096870   4.824459   4.771288   2.578735   7.083765
    18  H    1.089982   4.654655   5.805048   3.555656   7.113455
    19  H    1.096737   4.834486   4.730239   2.534572   7.087469
    20  H    8.400488   4.643028   5.326785   6.654840   2.377742
                   16         17         18         19         20
    16  H    0.000000
    17  H    7.056318   0.000000
    18  H    7.920576   1.778209   0.000000
    19  H    7.025547   1.775303   1.779075   0.000000
    20  H    3.534686   8.719374   9.053106   8.711699   0.000000
 Stoichiometry    C8H9NO2
 Framework group  C1[X(C8H9NO2)]
 Deg. of freedom    54
 Full point group                 C1      NOp   1
 Largest Abelian subgroup         C1      NOp   1
 Largest concise Abelian subgroup C1      NOp   1
                         Standard orientation:                         
 ---------------------------------------------------------------------
 Center     Atomic      Atomic             Coordinates (Angstroms)
 Number     Number       Type             X           Y           Z
 ---------------------------------------------------------------------
      1          8           0        3.996185   -0.237768    0.001169
      2          8           0       -2.509705   -1.461391   -0.001740
      3          7           0       -1.551476    0.651140   -0.001589
      4          6           0       -0.163864    0.349528   -0.000918
      5          6           0        0.341522   -0.961564   -0.000207
      6          6           0        0.736988    1.431864   -0.000953
      7          6           0        1.724072   -1.171043    0.000477
      8          6           0        2.112526    1.218308   -0.000230
      9          6           0        2.609577   -0.089320    0.000485
     10          6           0       -2.624167   -0.216765   -0.000819
     11          6           0       -3.981313    0.467030    0.002762
     12          1           0       -0.345589   -1.794671   -0.000239
     13          1           0        0.357318    2.450620   -0.001495
     14          1           0       -1.773306    1.637271   -0.002196
     15          1           0        2.104163   -2.189399    0.000992
     16          1           0        2.810513    2.046754   -0.000203
     17          1           0       -4.118814    1.071271    0.907809
     18          1           0       -4.754029   -0.301113   -0.027655
     19          1           0       -4.100209    1.125009   -0.866583
     20          1           0        4.256396   -1.178680    0.001677
 ---------------------------------------------------------------------
 Rotational constants (GHZ):      3.5586818      0.5408458      0.4708824
 Standard basis: 6-31G (6D, 7F)
 There are   117 symmetry adapted cartesian basis functions of A   symmetry.
 There are   117 symmetry adapted basis functions of A   symmetry.
   117 basis functions,   278 primitive gaussians,   117 cartesian basis functions
    40 alpha electrons       40 beta electrons
       nuclear repulsion energy       567.9060083342 Hartrees.
 NAtoms=   20 NActive=   20 NUniq=   20 SFac= 1.00D+00 NAtFMM=   60 NAOKFM=F Big=F
 Integral buffers will be    262144 words long.
 Raffenetti 2 integral format.
 Two-electron integral symmetry is turned on.
 One-electron integrals computed using PRISM.
 NBasis=   117 RedAO= T EigKep=  5.94D-04  NBF=   117
 NBsUse=   117 1.00D-06 EigRej= -1.00D+00 NBFU=   117
 Initial guess from the checkpoint file:  "E:\Research\Paracetamol Project\paracetamol_opt_freq.chk"
 B after Tr=     0.000000    0.000000    0.000000
         Rot=    1.000000   -0.000028    0.000004    0.000011 Ang=   0.00 deg.
 Keep R1 ints in memory in canonical form, NReq=24825568.
 Requested convergence on RMS density matrix=1.00D-08 within 128 cycles.
 Requested convergence on MAX density matrix=1.00D-06.
 Requested convergence on             energy=1.00D-06.
 No special actions if energy rises.
 SCF Done:  E(RB3LYP) =  -515.339392185     A.U. after    8 cycles
            NFock=  8  Conv=0.40D-08     -V/T= 2.0056
 Calling FoFJK, ICntrl=      2127 FMM=F ISym2X=0 I1Cent= 0 IOpClX= 0 NMat=1 NMatS=1 NMatT=0.
 ***** Axes restored to original set *****
 -------------------------------------------------------------------
 Center     Atomic                   Forces (Hartrees/Bohr)
 Number     Number              X              Y              Z
 -------------------------------------------------------------------
      1        8           0.000002210    0.000001993   -0.000000458
      2        8          -0.000025157    0.000046881   -0.000084370
      3        7          -0.000022832   -0.000029207   -0.000030646
      4        6           0.000052632    0.000057078   -0.000006441
      5        6          -0.000078764   -0.000048108   -0.000001318
      6        6           0.000013594   -0.000017903   -0.000000382
      7        6           0.000059277    0.000006131   -0.000001985
      8        6          -0.000038566   -0.000015705    0.000002413
      9        6          -0.000011698    0.000046035    0.000000204
     10        6           0.000016957   -0.000062933    0.000185077
     11        6           0.000015346    0.000010442   -0.000043872
     12        1           0.000025166    0.000000514    0.000002097
     13        1          -0.000003468    0.000004812   -0.000000401
     14        1           0.000004702   -0.000001509   -0.000004564
     15        1          -0.000012437    0.000004036   -0.000000203
     16        1           0.000005257    0.000008979    0.000000654
     17        1          -0.000011477   -0.000007702   -0.000008465
     18        1          -0.000009221    0.000002309    0.000001292
     19        1           0.000011381   -0.000013439   -0.000009400
     20        1           0.000007095    0.000007297    0.000000766
 -------------------------------------------------------------------
 Cartesian Forces:  Max     0.000185077 RMS     0.000035950

 GradGradGradGradGradGradGradGradGradGradGradGradGradGradGradGradGradGrad
 Berny optimization.
 Using GEDIIS/GDIIS optimizer.
 FormGI is forming the generalized inverse of G from B-inverse, IUseBI=4.
 GSVD:  received Info=                   1 from GESDD.
 Internal  Forces:  Max     0.000048795 RMS     0.000016176
 Search for a local minimum.
 Step number   6 out of a maximum of  101
 All quantities printed in internal units (Hartrees-Bohrs-Radians)
 Mixed Optimization -- En-DIIS/RFO-DIIS
 Swapping is turned off.
 Update second derivatives using D2CorX and points    1    2    3    4    5
                                                      6
 DE= -4.66D-07 DEPred=-5.06D-07 R= 9.21D-01
 Trust test= 9.21D-01 RLast= 5.12D-03 DXMaxT set to 5.05D-01
 ITU=  0  1  1  1  1  0
     Eigenvalues ---    0.00542   0.01616   0.01693   0.01752   0.01771
     Eigenvalues ---    0.02031   0.02156   0.02156   0.02157   0.02157
     Eigenvalues ---    0.02158   0.02158   0.02162   0.02168   0.02207
     Eigenvalues ---    0.07153   0.07448   0.12407   0.13725   0.16000
     Eigenvalues ---    0.16000   0.16000   0.16002   0.16096   0.16339
     Eigenvalues ---    0.17420   0.21308   0.22149   0.22774   0.23819
     Eigenvalues ---    0.24839   0.25860   0.26561   0.31237   0.34353
     Eigenvalues ---    0.34400   0.34511   0.35136   0.35162   0.35204
     Eigenvalues ---    0.35427   0.38682   0.40784   0.41520   0.43491
     Eigenvalues ---    0.44699   0.45607   0.46477   0.46860   0.47773
     Eigenvalues ---    0.52778   0.54142   0.58538   0.86501
 En-DIIS/RFO-DIIS IScMMF=        0 using points:     6    5    4
 RFO step:  Lambda=-1.01483124D-07.
 DidBck=F Rises=F RFO-DIIS coefs:    0.84803    0.20353   -0.05156
 Iteration  1 RMS(Cart)=  0.00085259 RMS(Int)=  0.00000069
 Iteration  2 RMS(Cart)=  0.00000114 RMS(Int)=  0.00000028
 Iteration  3 RMS(Cart)=  0.00000000 RMS(Int)=  0.00000028
 Variable       Old X    -DE/DX   Delta X   Delta X   Delta X     New X
                                 (Linear)    (Quad)   (Total)
    R1        2.63528   0.00001   0.00002  -0.00005  -0.00003   2.63525
    R2        1.84481   0.00000   0.00003  -0.00006  -0.00003   1.84478
    R3        2.36193   0.00005  -0.00006   0.00021   0.00016   2.36208
    R4        2.68344   0.00003  -0.00003   0.00018   0.00015   2.68359
    R5        2.60750   0.00001   0.00003  -0.00028  -0.00025   2.60725
    R6        1.91009   0.00000   0.00000   0.00006   0.00005   1.91014
    R7        2.65530  -0.00003  -0.00002  -0.00035  -0.00037   2.65494
    R8        2.66108  -0.00001   0.00000   0.00001   0.00001   2.66110
    R9        2.64246   0.00004   0.00001   0.00035   0.00036   2.64283
   R10        2.04072  -0.00002   0.00002  -0.00004  -0.00002   2.04070
   R11        2.63053  -0.00002   0.00008  -0.00022  -0.00014   2.63039
   R12        2.05452   0.00000   0.00000  -0.00004  -0.00005   2.05447
   R13        2.64173  -0.00002  -0.00002   0.00001   0.00000   2.64172
   R14        2.05409   0.00000   0.00000  -0.00003  -0.00003   2.05405
   R15        2.64356   0.00003   0.00000   0.00007   0.00007   2.64363
   R16        2.04711   0.00000   0.00000   0.00003   0.00002   2.04714
   R17        2.87178  -0.00001   0.00005  -0.00014  -0.00010   2.87169
   R18        2.07278   0.00001  -0.00002   0.00009   0.00008   2.07286
   R19        2.05977   0.00001   0.00000  -0.00005  -0.00004   2.05972
   R20        2.07253   0.00000  -0.00002   0.00007   0.00005   2.07259
    A1        1.94726   0.00002   0.00026  -0.00047  -0.00022   1.94704
    A2        2.24730   0.00001  -0.00008   0.00021   0.00012   2.24742
    A3        2.00609  -0.00001   0.00007   0.00000   0.00007   2.00617
    A4        2.02979   0.00000   0.00001  -0.00021  -0.00020   2.02959
    A5        2.15274   0.00003  -0.00013  -0.00016  -0.00029   2.15245
    A6        2.05091  -0.00004   0.00019  -0.00018   0.00002   2.05092
    A7        2.07953   0.00001  -0.00006   0.00033   0.00027   2.07981
    A8        2.08909   0.00000   0.00004  -0.00015  -0.00011   2.08898
    A9        2.08402   0.00002  -0.00001   0.00071   0.00071   2.08473
   A10        2.11008  -0.00002  -0.00004  -0.00057  -0.00060   2.10948
   A11        2.11091  -0.00001   0.00001  -0.00015  -0.00013   2.11078
   A12        2.09072   0.00000  -0.00001  -0.00004  -0.00005   2.09067
   A13        2.08156   0.00001   0.00000   0.00018   0.00018   2.08174
   A14        2.10641  -0.00001   0.00004  -0.00017  -0.00012   2.10628
   A15        2.07840   0.00000   0.00001  -0.00014  -0.00012   2.07827
   A16        2.09838   0.00001  -0.00006   0.00030   0.00025   2.09863
   A17        2.08807   0.00001   0.00003  -0.00001   0.00002   2.08809
   A18        2.11691   0.00000  -0.00002   0.00022   0.00021   2.11712
   A19        2.07820  -0.00001  -0.00002  -0.00021  -0.00023   2.07797
   A20        2.15013   0.00002  -0.00009   0.00007  -0.00002   2.15011
   A21        2.04070  -0.00001   0.00016  -0.00021  -0.00005   2.04065
   A22        2.09236  -0.00001  -0.00007   0.00014   0.00007   2.09243
   A23        2.15935   0.00003  -0.00010   0.00014   0.00004   2.15939
   A24        2.12923  -0.00003   0.00004  -0.00023  -0.00019   2.12904
   A25        1.99461   0.00000   0.00005   0.00009   0.00013   1.99475
   A26        1.94096   0.00001  -0.00002   0.00026   0.00024   1.94120
   A27        1.89224   0.00000   0.00009  -0.00021  -0.00013   1.89211
   A28        1.94432  -0.00001  -0.00005   0.00033   0.00028   1.94460
   A29        1.89903  -0.00001  -0.00002  -0.00010  -0.00012   1.89892
   A30        1.88595  -0.00001   0.00003  -0.00029  -0.00026   1.88569
   A31        1.90057   0.00001  -0.00003   0.00000  -0.00003   1.90054
    D1       -0.00005   0.00000  -0.00001   0.00007   0.00006   0.00000
    D2        3.14155   0.00000   0.00000   0.00004   0.00004  -3.14159
    D3        0.00080   0.00001   0.00000   0.00029   0.00030   0.00110
    D4       -3.14077   0.00001   0.00000   0.00026   0.00027  -3.14050
    D5       -3.14145   0.00000  -0.00001   0.00008   0.00007  -3.14138
    D6        0.00017   0.00000  -0.00001   0.00005   0.00004   0.00021
    D7       -0.00231   0.00003   0.00020   0.00127   0.00148  -0.00084
    D8        3.13821  -0.00003  -0.00011  -0.00172  -0.00183   3.13637
    D9        3.13994   0.00003   0.00022   0.00149   0.00171  -3.14154
   D10       -0.00273  -0.00002  -0.00010  -0.00150  -0.00160  -0.00433
   D11       -3.14155   0.00000   0.00001  -0.00004  -0.00004  -3.14159
   D12        0.00009   0.00000   0.00002  -0.00004  -0.00003   0.00006
   D13        0.00002   0.00000   0.00001  -0.00001  -0.00001   0.00001
   D14       -3.14153   0.00000   0.00002  -0.00001   0.00000  -3.14152
   D15        3.14152   0.00000   0.00000   0.00005   0.00005   3.14156
   D16       -0.00001   0.00000   0.00000   0.00004   0.00004   0.00003
   D17       -0.00006   0.00000   0.00000   0.00002   0.00002  -0.00004
   D18       -3.14159   0.00000   0.00000   0.00001   0.00001  -3.14158
   D19        0.00002   0.00000   0.00000   0.00000   0.00000   0.00002
   D20       -3.14156   0.00000   0.00001   0.00000   0.00000  -3.14156
   D21        3.14157   0.00000  -0.00002   0.00000  -0.00002   3.14155
   D22       -0.00001   0.00000  -0.00001   0.00000  -0.00001  -0.00002
   D23        0.00005   0.00000   0.00000  -0.00002  -0.00002   0.00003
   D24       -3.14154   0.00000   0.00000  -0.00001  -0.00001  -3.14155
   D25        3.14158   0.00000   0.00000  -0.00001  -0.00001   3.14157
   D26       -0.00001   0.00000   0.00000   0.00000   0.00000  -0.00001
   D27        3.14158   0.00000   0.00001  -0.00002  -0.00001   3.14157
   D28       -0.00003   0.00000   0.00000   0.00000   0.00000  -0.00002
   D29       -0.00003   0.00000   0.00000  -0.00002  -0.00001  -0.00004
   D30        3.14155   0.00000  -0.00001   0.00001   0.00000   3.14155
   D31        3.14158   0.00000  -0.00001   0.00003   0.00002  -3.14159
   D32       -0.00001   0.00000   0.00000   0.00001   0.00001   0.00000
   D33       -0.00002   0.00000  -0.00001   0.00002   0.00001  -0.00001
   D34        3.14158   0.00000   0.00000  -0.00001   0.00000   3.14158
   D35        2.05631  -0.00004   0.00005  -0.00361  -0.00356   2.05275
   D36       -0.03080  -0.00003   0.00003  -0.00350  -0.00347  -0.03428
   D37       -2.12184  -0.00004   0.00004  -0.00357  -0.00353  -2.12537
   D38       -1.08423   0.00002   0.00036  -0.00067  -0.00031  -1.08454
   D39        3.11184   0.00002   0.00034  -0.00057  -0.00023   3.11161
   D40        1.02081   0.00002   0.00034  -0.00063  -0.00029   1.02052
         Item               Value     Threshold  Converged?
 Maximum Force            0.000049     0.000450     YES
 RMS     Force            0.000016     0.000300     YES
 Maximum Displacement     0.002974     0.001800     NO 
 RMS     Displacement     0.000853     0.001200     YES
 Predicted change in Energy=-3.551433D-07
 GradGradGradGradGradGradGradGradGradGradGradGradGradGradGradGradGradGrad

                          Input orientation:                          
 ---------------------------------------------------------------------
 Center     Atomic      Atomic             Coordinates (Angstroms)
 Number     Number       Type             X           Y           Z
 ---------------------------------------------------------------------
      1          8           0        3.922273    0.377214   -0.002384
      2          8           0       -2.621130    1.380534    0.002530
      3          7           0       -1.592110   -0.698411    0.004016
      4          6           0       -0.215362   -0.350225    0.002398
      5          6           0        0.245139    0.977092    0.001299
      6          6           0        0.721446   -1.401602    0.001900
      7          6           0        1.619993    1.233293   -0.000279
      8          6           0        2.088899   -1.141659    0.000300
      9          6           0        2.541481    0.182057   -0.000796
     10          6           0       -2.693414    0.132665    0.003620
     11          6           0       -4.026725   -0.596399   -0.001446
     12          1           0       -0.469288    1.786880    0.001740
     13          1           0        0.376269   -2.432530    0.002724
     14          1           0       -1.780685   -1.691467    0.004869
     15          1           0        1.965258    2.263958   -0.001087
     16          1           0        2.814683   -1.945883   -0.000132
     17          1           0       -4.143728   -1.203767   -0.907331
     18          1           0       -4.824763    0.145342    0.029637
     19          1           0       -4.124004   -1.259299    0.866884
     20          1           0        4.150368    1.326406   -0.003064
 ---------------------------------------------------------------------
                    Distance matrix (angstroms):
                    1          2          3          4          5
     1  O    0.000000
     2  O    6.619879   0.000000
     3  N    5.618312   2.319676   0.000000
     4  C    4.201097   2.963654   1.420095   0.000000
     5  C    3.725746   2.894523   2.486524   1.404932   0.000000
     6  C    3.661898   4.348918   2.418061   1.408191   2.425913
     7  C    2.456291   4.243680   3.748214   2.424060   1.398523
     8  C    2.380807   5.342830   3.707602   2.436389   2.808658
     9  C    1.394516   5.299897   4.226325   2.807761   2.430077
    10  C    6.620208   1.249961   1.379695   2.524663   3.057475
    11  C    8.008401   2.425690   2.436757   3.819306   4.552439
    12  H    4.612265   2.189872   2.727161   2.152138   1.079890
    13  H    4.524249   4.850139   2.623296   2.164722   3.412143
    14  H    6.066566   3.184893   1.010802   2.061351   3.350400
    15  H    2.718402   4.670697   4.629312   3.404273   2.148218
    16  H    2.573624   6.372842   4.579959   3.424515   3.891830
    17  H    8.269148   3.134448   2.756210   4.121674   4.984367
    18  H    8.750167   2.526347   3.341051   4.636043   5.137754
    19  H    8.256899   3.158236   2.733061   4.105025   4.983984
    20  H    0.976214   6.771717   6.089006   4.676615   3.920823
                    6          7          8          9         10
     6  C    0.000000
     7  C    2.783893   0.000000
     8  C    1.391942   2.420799   0.000000
     9  C    2.412573   1.397940   1.398947   0.000000
    10  C    3.743694   4.451615   4.949185   5.235130   0.000000
    11  C    4.815962   5.935756   6.139884   6.614176   1.519631
    12  H    3.403566   2.161379   3.888530   3.411773   2.771853
    13  H    1.087180   3.871061   2.144634   3.394734   4.000397
    14  H    2.518866   4.485405   3.908451   4.710758   2.039739
    15  H    3.870840   1.086958   3.407861   2.160173   5.123052
    16  H    2.162842   3.396239   1.083300   2.145406   5.887232
    17  H    4.953358   6.323171   6.298674   6.887259   2.172393
    18  H    5.757971   6.536009   7.032493   7.366398   2.131545
    19  H    4.924107   6.321273   6.274151   6.874523   2.174713
    20  H    4.381730   2.532089   3.215744   1.974350   6.947116
                   11         12         13         14         15
    11  C    0.000000
    12  H    4.281984   0.000000
    13  H    4.770508   4.303299   0.000000
    14  H    2.498782   3.717347   2.280707   0.000000
    15  H    6.639691   2.480852   4.958013   5.447707   0.000000
    16  H    6.973232   4.971719   2.486502   4.602407   4.294681
    17  H    1.096911   4.824095   4.771628   2.579522   7.082804
    18  H    1.089958   4.654630   5.804901   3.555403   7.112936
    19  H    1.096766   4.835766   4.730296   2.533966   7.088429
    20  H    8.400121   4.642552   5.326674   6.654698   2.377754
                   16         17         18         19         20
    16  H    0.000000
    17  H    7.056432   0.000000
    18  H    7.920557   1.778148   0.000000
    19  H    7.026271   1.775193   1.779061   0.000000
    20  H    3.534394   8.718458   9.052566   8.712515   0.000000
 Stoichiometry    C8H9NO2
 Framework group  C1[X(C8H9NO2)]
 Deg. of freedom    54
 Full point group                 C1      NOp   1
 Largest Abelian subgroup         C1      NOp   1
 Largest concise Abelian subgroup C1      NOp   1
                         Standard orientation:                         
 ---------------------------------------------------------------------
 Center     Atomic      Atomic             Coordinates (Angstroms)
 Number     Number       Type             X           Y           Z
 ---------------------------------------------------------------------
      1          8           0        3.996110   -0.237824    0.001752
      2          8           0       -2.509710   -1.461381   -0.001132
      3          7           0       -1.551432    0.651105   -0.002519
      4          6           0       -0.163718    0.349576   -0.001450
      5          6           0        0.341312   -0.961446   -0.000798
      6          6           0        0.737078    1.431966   -0.001046
      7          6           0        1.724030   -1.171106    0.000252
      8          6           0        2.112525    1.218317    0.000028
      9          6           0        2.609518   -0.089373    0.000681
     10          6           0       -2.624063   -0.216662   -0.001925
     11          6           0       -3.981215    0.466992    0.003756
     12          1           0       -0.345382   -1.794881   -0.001170
     13          1           0        0.357308    2.450659   -0.001527
     14          1           0       -1.773410    1.637232   -0.003092
     15          1           0        2.103878   -2.189533    0.000718
     16          1           0        2.810756    2.046574    0.000386
     17          1           0       -4.118330    1.069880    0.909814
     18          1           0       -4.753779   -0.301249   -0.027213
     19          1           0       -4.101114    1.126411   -0.864395
     20          1           0        4.256106   -1.178778    0.002147
 ---------------------------------------------------------------------
 Rotational constants (GHZ):      3.5586092      0.5408656      0.4708961
 Standard basis: 6-31G (6D, 7F)
 There are   117 symmetry adapted cartesian basis functions of A   symmetry.
 There are   117 symmetry adapted basis functions of A   symmetry.
   117 basis functions,   278 primitive gaussians,   117 cartesian basis functions
    40 alpha electrons       40 beta electrons
       nuclear repulsion energy       567.9101662913 Hartrees.
 NAtoms=   20 NActive=   20 NUniq=   20 SFac= 1.00D+00 NAtFMM=   60 NAOKFM=F Big=F
 Integral buffers will be    262144 words long.
 Raffenetti 2 integral format.
 Two-electron integral symmetry is turned on.
 One-electron integrals computed using PRISM.
 NBasis=   117 RedAO= T EigKep=  5.94D-04  NBF=   117
 NBsUse=   117 1.00D-06 EigRej= -1.00D+00 NBFU=   117
 Initial guess from the checkpoint file:  "E:\Research\Paracetamol Project\paracetamol_opt_freq.chk"
 B after Tr=     0.000000    0.000000    0.000000
         Rot=    1.000000   -0.000029   -0.000002    0.000006 Ang=   0.00 deg.
 Keep R1 ints in memory in canonical form, NReq=24825568.
 Requested convergence on RMS density matrix=1.00D-08 within 128 cycles.
 Requested convergence on MAX density matrix=1.00D-06.
 Requested convergence on             energy=1.00D-06.
 No special actions if energy rises.
 SCF Done:  E(RB3LYP) =  -515.339392166     A.U. after    8 cycles
            NFock=  8  Conv=0.41D-08     -V/T= 2.0056
 Calling FoFJK, ICntrl=      2127 FMM=F ISym2X=0 I1Cent= 0 IOpClX= 0 NMat=1 NMatS=1 NMatT=0.
 ***** Axes restored to original set *****
 -------------------------------------------------------------------
 Center     Atomic                   Forces (Hartrees/Bohr)
 Number     Number              X              Y              Z
 -------------------------------------------------------------------
      1        8           0.000000313    0.000004648    0.000000748
      2        8          -0.000024805   -0.000034222    0.000071798
      3        7           0.000047273   -0.000144225    0.000067183
      4        6          -0.000130716   -0.000001645    0.000002020
      5        6           0.000200388    0.000116447    0.000002821
      6        6          -0.000013762    0.000002535    0.000002496
      7        6          -0.000065078   -0.000073616   -0.000001492
      8        6           0.000027302   -0.000000153   -0.000001252
      9        6          -0.000035836    0.000064096   -0.000001434
     10        6          -0.000020634    0.000091288   -0.000236360
     11        6          -0.000031843   -0.000048405    0.000091742
     12        1          -0.000030518   -0.000050359   -0.000002486
     13        1           0.000001471   -0.000008680    0.000001260
     14        1           0.000030442    0.000015733    0.000013068
     15        1           0.000007058    0.000005129   -0.000000158
     16        1          -0.000014959    0.000000939    0.000000465
     17        1           0.000033401    0.000031547   -0.000006266
     18        1          -0.000026255    0.000010814    0.000007998
     19        1           0.000012422   -0.000003109   -0.000012593
     20        1           0.000034337    0.000021239    0.000000440
 -------------------------------------------------------------------
 Cartesian Forces:  Max     0.000236360 RMS     0.000058864

 GradGradGradGradGradGradGradGradGradGradGradGradGradGradGradGradGradGrad
 Berny optimization.
 Using GEDIIS/GDIIS optimizer.
 FormGI is forming the generalized inverse of G from B-inverse, IUseBI=4.
 GSVD:  received Info=                   1 from GESDD.
 Internal  Forces:  Max     0.000100025 RMS     0.000028980
 Search for a local minimum.
 Step number   7 out of a maximum of  101
 All quantities printed in internal units (Hartrees-Bohrs-Radians)
 Mixed Optimization -- En-DIIS/RFO-DIIS
 Swapping is turned off.
 Update second derivatives using D2CorX and points    1    2    3    4    5
                                                      6    7
 DE=  1.93D-08 DEPred=-3.55D-07 R=-5.43D-02
 Trust test=-5.43D-02 RLast= 7.12D-03 DXMaxT set to 2.52D-01
 ITU= -1  0  1  1  1  1  0
     Eigenvalues ---    0.00396   0.01665   0.01708   0.01751   0.02031
     Eigenvalues ---    0.02155   0.02156   0.02157   0.02157   0.02158
     Eigenvalues ---    0.02158   0.02158   0.02167   0.02206   0.03466
     Eigenvalues ---    0.07152   0.07408   0.12152   0.14279   0.16000
     Eigenvalues ---    0.16000   0.16001   0.16032   0.16332   0.16651
     Eigenvalues ---    0.17878   0.21478   0.22200   0.22865   0.24336
     Eigenvalues ---    0.24877   0.25136   0.26492   0.31242   0.34372
     Eigenvalues ---    0.34410   0.34668   0.35150   0.35162   0.35203
     Eigenvalues ---    0.35458   0.38830   0.41101   0.41617   0.43132
     Eigenvalues ---    0.44691   0.45307   0.46404   0.46799   0.48978
     Eigenvalues ---    0.52821   0.53908   0.56847   0.86470
 En-DIIS/RFO-DIIS IScMMF=        0 using points:     7    6    5    4
 RFO step:  Lambda=-1.69569822D-07.
 DidBck=T Rises=F RFO-DIIS coefs:    0.49436    0.53105   -0.03454    0.00913
 Iteration  1 RMS(Cart)=  0.00054140 RMS(Int)=  0.00000031
 Iteration  2 RMS(Cart)=  0.00000035 RMS(Int)=  0.00000009
 Variable       Old X    -DE/DX   Delta X   Delta X   Delta X     New X
                                 (Linear)    (Quad)   (Total)
    R1        2.63525   0.00004   0.00001   0.00005   0.00007   2.63532
    R2        1.84478   0.00002   0.00001   0.00002   0.00003   1.84481
    R3        2.36208  -0.00003  -0.00007   0.00006  -0.00001   2.36207
    R4        2.68359   0.00000  -0.00007   0.00006  -0.00002   2.68357
    R5        2.60725   0.00009   0.00012  -0.00001   0.00011   2.60736
    R6        1.91014  -0.00002  -0.00003  -0.00001  -0.00003   1.91010
    R7        2.65494   0.00008   0.00019  -0.00007   0.00012   2.65505
    R8        2.66110   0.00000  -0.00001   0.00001   0.00000   2.66110
    R9        2.64283  -0.00006  -0.00019   0.00008  -0.00010   2.64272
   R10        2.04070  -0.00002   0.00001  -0.00004  -0.00003   2.04067
   R11        2.63039   0.00002   0.00006  -0.00003   0.00003   2.63041
   R12        2.05447   0.00001   0.00002   0.00000   0.00002   2.05449
   R13        2.64172  -0.00004   0.00001  -0.00007  -0.00007   2.64166
   R14        2.05405   0.00001   0.00002  -0.00001   0.00001   2.05406
   R15        2.64363   0.00002  -0.00004   0.00007   0.00004   2.64366
   R16        2.04714  -0.00001  -0.00001  -0.00001  -0.00002   2.04712
   R17        2.87169   0.00001   0.00004  -0.00003   0.00002   2.87170
   R18        2.07286  -0.00002  -0.00004   0.00001  -0.00003   2.07283
   R19        2.05972   0.00003   0.00002   0.00004   0.00006   2.05978
   R20        2.07259  -0.00001  -0.00002   0.00000  -0.00003   2.07256
    A1        1.94704   0.00006   0.00007   0.00018   0.00024   1.94728
    A2        2.24742   0.00000  -0.00005  -0.00003  -0.00008   2.24734
    A3        2.00617  -0.00002  -0.00005  -0.00002  -0.00007   2.00610
    A4        2.02959   0.00002   0.00010   0.00005   0.00015   2.02975
    A5        2.15245   0.00010   0.00017   0.00006   0.00023   2.15269
    A6        2.05092  -0.00005  -0.00004  -0.00008  -0.00012   2.05080
    A7        2.07981  -0.00005  -0.00013   0.00002  -0.00011   2.07970
    A8        2.08898   0.00003   0.00005   0.00003   0.00008   2.08906
    A9        2.08473  -0.00007  -0.00036   0.00005  -0.00031   2.08442
   A10        2.10948   0.00004   0.00031  -0.00008   0.00023   2.10971
   A11        2.11078   0.00001   0.00006  -0.00005   0.00002   2.11080
   A12        2.09067   0.00000   0.00003  -0.00003   0.00000   2.09066
   A13        2.08174   0.00000  -0.00009   0.00008  -0.00001   2.08173
   A14        2.10628   0.00002   0.00006  -0.00003   0.00003   2.10631
   A15        2.07827   0.00000   0.00006  -0.00003   0.00003   2.07830
   A16        2.09863  -0.00002  -0.00011   0.00006  -0.00005   2.09857
   A17        2.08809   0.00001  -0.00002   0.00005   0.00003   2.08812
   A18        2.11712  -0.00002  -0.00010   0.00003  -0.00008   2.11704
   A19        2.07797   0.00001   0.00012  -0.00007   0.00005   2.07802
   A20        2.15011   0.00003   0.00002   0.00006   0.00008   2.15020
   A21        2.04065  -0.00001   0.00000  -0.00004  -0.00004   2.04061
   A22        2.09243  -0.00002  -0.00002  -0.00002  -0.00004   2.09239
   A23        2.15939   0.00003  -0.00001   0.00004   0.00004   2.15943
   A24        2.12904  -0.00002   0.00009  -0.00012  -0.00003   2.12901
   A25        1.99475  -0.00001  -0.00008   0.00008   0.00000   1.99474
   A26        1.94120  -0.00006  -0.00012  -0.00010  -0.00021   1.94098
   A27        1.89211   0.00002   0.00005   0.00003   0.00008   1.89219
   A28        1.94460   0.00000  -0.00013   0.00009  -0.00004   1.94456
   A29        1.89892   0.00001   0.00006  -0.00004   0.00003   1.89894
   A30        1.88569   0.00003   0.00013  -0.00004   0.00009   1.88578
   A31        1.90054   0.00000   0.00002   0.00005   0.00007   1.90061
    D1        0.00000   0.00000  -0.00003   0.00003   0.00000   0.00001
    D2       -3.14159   0.00000  -0.00002   0.00004   0.00002  -3.14157
    D3        0.00110   0.00000  -0.00015   0.00012  -0.00003   0.00107
    D4       -3.14050   0.00000  -0.00014   0.00012  -0.00001  -3.14052
    D5       -3.14138   0.00000  -0.00003   0.00008   0.00004  -3.14133
    D6        0.00021   0.00000  -0.00002   0.00008   0.00006   0.00027
    D7       -0.00084  -0.00004  -0.00078  -0.00012  -0.00091  -0.00174
    D8        3.13637   0.00003   0.00094  -0.00020   0.00074   3.13711
    D9       -3.14154  -0.00004  -0.00090  -0.00008  -0.00098   3.14067
   D10       -0.00433   0.00003   0.00083  -0.00016   0.00067  -0.00366
   D11       -3.14159   0.00000   0.00002   0.00001   0.00003  -3.14156
   D12        0.00006   0.00000   0.00001   0.00001   0.00002   0.00008
   D13        0.00001   0.00000   0.00000   0.00001   0.00001   0.00002
   D14       -3.14152   0.00000   0.00000   0.00001   0.00000  -3.14152
   D15        3.14156   0.00000  -0.00002  -0.00001  -0.00003   3.14153
   D16        0.00003   0.00000  -0.00002   0.00001  -0.00001   0.00001
   D17       -0.00004   0.00000  -0.00001  -0.00001  -0.00002  -0.00005
   D18       -3.14158   0.00000  -0.00001   0.00001   0.00000  -3.14157
   D19        0.00002   0.00000   0.00000  -0.00001   0.00000   0.00001
   D20       -3.14156   0.00000   0.00000   0.00001   0.00001  -3.14155
   D21        3.14155   0.00000   0.00001  -0.00001   0.00000   3.14155
   D22       -0.00002   0.00000   0.00001   0.00001   0.00002  -0.00001
   D23        0.00003   0.00000   0.00001   0.00001   0.00001   0.00004
   D24       -3.14155   0.00000   0.00000   0.00000   0.00001  -3.14154
   D25        3.14157   0.00000   0.00001  -0.00001   0.00000   3.14157
   D26       -0.00001   0.00000   0.00000  -0.00001  -0.00001  -0.00002
   D27        3.14157   0.00000   0.00000   0.00002   0.00002   3.14159
   D28       -0.00002   0.00000   0.00000   0.00001   0.00000  -0.00002
   D29       -0.00004   0.00000   0.00001   0.00000   0.00001  -0.00003
   D30        3.14155   0.00000   0.00000  -0.00001  -0.00001   3.14154
   D31       -3.14159   0.00000  -0.00001  -0.00002  -0.00003   3.14157
   D32        0.00000   0.00000   0.00000   0.00000  -0.00001  -0.00001
   D33       -0.00001   0.00000   0.00000  -0.00002  -0.00002  -0.00003
   D34        3.14158   0.00000   0.00000   0.00000   0.00000   3.14158
   D35        2.05275   0.00002   0.00179  -0.00185  -0.00005   2.05270
   D36       -0.03428   0.00003   0.00175  -0.00176  -0.00001  -0.03429
   D37       -2.12537   0.00001   0.00178  -0.00189  -0.00011  -2.12549
   D38       -1.08454  -0.00005   0.00010  -0.00177  -0.00167  -1.08621
   D39        3.11161  -0.00004   0.00006  -0.00168  -0.00162   3.10999
   D40        1.02052  -0.00005   0.00009  -0.00182  -0.00173   1.01879
         Item               Value     Threshold  Converged?
 Maximum Force            0.000100     0.000450     YES
 RMS     Force            0.000029     0.000300     YES
 Maximum Displacement     0.002881     0.001800     NO 
 RMS     Displacement     0.000541     0.001200     YES
 Predicted change in Energy=-2.450220D-07
 GradGradGradGradGradGradGradGradGradGradGradGradGradGradGradGradGradGrad

                          Input orientation:                          
 ---------------------------------------------------------------------
 Center     Atomic      Atomic             Coordinates (Angstroms)
 Number     Number       Type             X           Y           Z
 ---------------------------------------------------------------------
      1          8           0        3.922350    0.377133   -0.002026
      2          8           0       -2.621313    1.380510    0.002629
      3          7           0       -1.592139   -0.698438    0.003579
      4          6           0       -0.215438   -0.350103    0.002166
      5          6           0        0.245247    0.977215    0.000970
      6          6           0        0.721357   -1.401493    0.001963
      7          6           0        1.620060    1.233343   -0.000424
      8          6           0        2.088832   -1.141590    0.000539
      9          6           0        2.541503    0.182115   -0.000657
     10          6           0       -2.693515    0.132642    0.002899
     11          6           0       -4.026812   -0.596470   -0.001295
     12          1           0       -0.469319    1.786860    0.001190
     13          1           0        0.376157   -2.432425    0.002862
     14          1           0       -1.780532   -1.691510    0.004575
     15          1           0        1.965403    2.263987   -0.001301
     16          1           0        2.814521   -1.945885    0.000325
     17          1           0       -4.144553   -1.203070   -0.907581
     18          1           0       -4.824922    0.145181    0.031161
     19          1           0       -4.123068   -1.260060    0.866601
     20          1           0        4.150780    1.326261   -0.002775
 ---------------------------------------------------------------------
                    Distance matrix (angstroms):
                    1          2          3          4          5
     1  O    0.000000
     2  O    6.620145   0.000000
     3  N    5.618405   2.319747   0.000000
     4  C    4.201211   2.963657   1.420086   0.000000
     5  C    3.725747   2.894792   2.486726   1.404993   0.000000
     6  C    3.661951   4.348907   2.417964   1.408192   2.425888
     7  C    2.456346   4.243927   3.748335   2.424120   1.398469
     8  C    2.380822   5.342889   3.707551   2.436414   2.808583
     9  C    1.394551   5.300079   4.226392   2.807844   2.430016
    10  C    6.620383   1.249956   1.379755   2.524660   3.057716
    11  C    8.008563   2.425673   2.436813   3.819330   4.552689
    12  H    4.612386   2.190023   2.727166   2.151992   1.079875
    13  H    4.524281   4.850083   2.623147   2.164728   3.412153
    14  H    6.066480   3.185000   1.010784   2.061285   3.350505
    15  H    2.718430   4.671029   4.629481   3.404342   2.148191
    16  H    2.573655   6.372849   4.579824   3.424496   3.891746
    17  H    8.269945   3.134267   2.756752   4.122273   4.984922
    18  H    8.750410   2.526409   3.341159   4.636108   5.138074
    19  H    8.256129   3.158216   2.732367   4.104247   4.983663
    20  H    0.976230   6.772313   6.089381   4.676973   3.921101
                    6          7          8          9         10
     6  C    0.000000
     7  C    2.783888   0.000000
     8  C    1.391955   2.420755   0.000000
     9  C    2.412624   1.397904   1.398967   0.000000
    10  C    3.743651   4.451795   4.949193   5.235253   0.000000
    11  C    4.815930   5.935940   6.139891   6.614299   1.519639
    12  H    3.403426   2.161456   3.888439   3.411783   2.771910
    13  H    1.087191   3.871067   2.144648   3.394783   4.000307
    14  H    2.518643   4.485400   3.908248   4.710677   2.039870
    15  H    3.870841   1.086964   3.407814   2.160111   5.123297
    16  H    2.162800   3.396208   1.083289   2.145443   5.887168
    17  H    4.954162   6.323749   6.299488   6.888003   2.172236
    18  H    5.757974   6.536275   7.032547   7.366586   2.131632
    19  H    4.923013   6.320784   6.273101   6.873755   2.174678
    20  H    4.381964   2.532426   3.215887   1.974550   6.947599
                   11         12         13         14         15
    11  C    0.000000
    12  H    4.282058   0.000000
    13  H    4.770418   4.303162   0.000000
    14  H    2.498984   3.717303   2.280409   0.000000
    15  H    6.639944   2.481034   4.958024   5.447754   0.000000
    16  H    6.973146   4.971619   2.486432   4.602090   4.294651
    17  H    1.096896   4.824198   4.772530   2.580542   7.083318
    18  H    1.089990   4.654813   5.804833   3.555623   7.113291
    19  H    1.096751   4.835549   4.729008   2.533123   7.088134
    20  H    8.400589   4.643004   5.326868   6.654882   2.378067
                   16         17         18         19         20
    16  H    0.000000
    17  H    7.057250   0.000000
    18  H    7.920518   1.778179   0.000000
    19  H    7.025022   1.775227   1.779119   0.000000
    20  H    3.534478   8.719446   9.053139   8.712143   0.000000
 Stoichiometry    C8H9NO2
 Framework group  C1[X(C8H9NO2)]
 Deg. of freedom    54
 Full point group                 C1      NOp   1
 Largest Abelian subgroup         C1      NOp   1
 Largest concise Abelian subgroup C1      NOp   1
                         Standard orientation:                         
 ---------------------------------------------------------------------
 Center     Atomic      Atomic             Coordinates (Angstroms)
 Number     Number       Type             X           Y           Z
 ---------------------------------------------------------------------
      1          8           0        3.996211   -0.237677    0.001531
      2          8           0       -2.509853   -1.461375   -0.001477
      3          7           0       -1.551444    0.651130   -0.002168
      4          6           0       -0.163768    0.349467   -0.001252
      5          6           0        0.341460   -0.961544   -0.000549
      6          6           0        0.737001    1.431881   -0.001040
      7          6           0        1.724136   -1.171117    0.000373
      8          6           0        2.112470    1.218287   -0.000087
      9          6           0        2.609568   -0.089383    0.000619
     10          6           0       -2.624137   -0.216655   -0.001389
     11          6           0       -3.981286    0.467031    0.003393
     12          1           0       -0.345368   -1.794849   -0.000778
     13          1           0        0.357197    2.450572   -0.001559
     14          1           0       -1.773253    1.637276   -0.002840
     15          1           0        2.104074   -2.189516    0.000871
     16          1           0        2.810596    2.046621    0.000131
     17          1           0       -4.119162    1.069076    0.909877
     18          1           0       -4.753915   -0.301130   -0.029030
     19          1           0       -4.100150    1.127220   -0.864296
     20          1           0        4.256551   -1.178553    0.001957
 ---------------------------------------------------------------------
 Rotational constants (GHZ):      3.5586965      0.5408398      0.4708781
 Standard basis: 6-31G (6D, 7F)
 There are   117 symmetry adapted cartesian basis functions of A   symmetry.
 There are   117 symmetry adapted basis functions of A   symmetry.
   117 basis functions,   278 primitive gaussians,   117 cartesian basis functions
    40 alpha electrons       40 beta electrons
       nuclear repulsion energy       567.9037971178 Hartrees.
 NAtoms=   20 NActive=   20 NUniq=   20 SFac= 1.00D+00 NAtFMM=   60 NAOKFM=F Big=F
 Integral buffers will be    262144 words long.
 Raffenetti 2 integral format.
 Two-electron integral symmetry is turned on.
 One-electron integrals computed using PRISM.
 NBasis=   117 RedAO= T EigKep=  5.94D-04  NBF=   117
 NBsUse=   117 1.00D-06 EigRej= -1.00D+00 NBFU=   117
 Initial guess from the checkpoint file:  "E:\Research\Paracetamol Project\paracetamol_opt_freq.chk"
 B after Tr=     0.000000    0.000000    0.000000
         Rot=    1.000000   -0.000017    0.000003   -0.000004 Ang=   0.00 deg.
 Keep R1 ints in memory in canonical form, NReq=24825568.
 Requested convergence on RMS density matrix=1.00D-08 within 128 cycles.
 Requested convergence on MAX density matrix=1.00D-06.
 Requested convergence on             energy=1.00D-06.
 No special actions if energy rises.
 SCF Done:  E(RB3LYP) =  -515.339392458     A.U. after    7 cycles
            NFock=  7  Conv=0.99D-08     -V/T= 2.0056
 Calling FoFJK, ICntrl=      2127 FMM=F ISym2X=0 I1Cent= 0 IOpClX= 0 NMat=1 NMatS=1 NMatT=0.
 ***** Axes restored to original set *****
 -------------------------------------------------------------------
 Center     Atomic                   Forces (Hartrees/Bohr)
 Number     Number              X              Y              Z
 -------------------------------------------------------------------
      1        8          -0.000008240    0.000001019   -0.000000247
      2        8          -0.000002237   -0.000037769   -0.000013599
      3        7           0.000026311   -0.000054975    0.000015314
      4        6          -0.000066492   -0.000003395   -0.000002963
      5        6           0.000088359    0.000049683    0.000000391
      6        6           0.000001751    0.000004746   -0.000000015
      7        6          -0.000038836   -0.000028266   -0.000000747
      8        6           0.000020251    0.000004747    0.000000717
      9        6          -0.000000828    0.000027713    0.000000469
     10        6          -0.000016519    0.000064808   -0.000007938
     11        6          -0.000016593   -0.000031234    0.000020157
     12        1          -0.000018337   -0.000016532   -0.000000458
     13        1           0.000005791   -0.000003627    0.000000664
     14        1           0.000011707    0.000005846    0.000003390
     15        1           0.000000590    0.000004027   -0.000000520
     16        1          -0.000004539    0.000000447    0.000000792
     17        1           0.000008318    0.000013757   -0.000008971
     18        1          -0.000005610   -0.000002853    0.000004171
     19        1           0.000011121   -0.000006166   -0.000010866
     20        1           0.000004030    0.000008022    0.000000259
 -------------------------------------------------------------------
 Cartesian Forces:  Max     0.000088359 RMS     0.000022991

 GradGradGradGradGradGradGradGradGradGradGradGradGradGradGradGradGradGrad
 Berny optimization.
 Using GEDIIS/GDIIS optimizer.
 FormGI is forming the generalized inverse of G from B-inverse, IUseBI=4.
 GSVD:  received Info=                   1 from GESDD.
 Internal  Forces:  Max     0.000036304 RMS     0.000010820
 Search for a local minimum.
 Step number   8 out of a maximum of  101
 All quantities printed in internal units (Hartrees-Bohrs-Radians)
 Mixed Optimization -- En-DIIS/RFO-DIIS
 Swapping is turned off.
 Update second derivatives using D2CorX and points    1    2    3    4    5
                                                      6    7    8
 DE= -2.93D-07 DEPred=-2.45D-07 R= 1.19D+00
 Trust test= 1.19D+00 RLast= 3.42D-03 DXMaxT set to 2.52D-01
 ITU=  0 -1  0  1  1  1  1  0
     Eigenvalues ---    0.00188   0.01662   0.01708   0.01751   0.02031
     Eigenvalues ---    0.02155   0.02156   0.02157   0.02157   0.02158
     Eigenvalues ---    0.02158   0.02158   0.02167   0.02207   0.04135
     Eigenvalues ---    0.07159   0.07389   0.12956   0.14708   0.15993
     Eigenvalues ---    0.16000   0.16002   0.16035   0.16219   0.16400
     Eigenvalues ---    0.17757   0.21716   0.22213   0.22838   0.23792
     Eigenvalues ---    0.24817   0.25872   0.26541   0.31274   0.34381
     Eigenvalues ---    0.34429   0.34629   0.35154   0.35162   0.35207
     Eigenvalues ---    0.35478   0.39045   0.41434   0.41737   0.43634
     Eigenvalues ---    0.44681   0.45650   0.46382   0.46993   0.48422
     Eigenvalues ---    0.52789   0.54279   0.58229   0.86788
 En-DIIS/RFO-DIIS IScMMF=        0 using points:     8    7    6    5    4
 RFO step:  Lambda=-2.96115617D-08.
 DidBck=F Rises=F RFO-DIIS coefs:    1.57463   -0.38906   -0.13121   -0.06758    0.01322
 Iteration  1 RMS(Cart)=  0.00177106 RMS(Int)=  0.00000385
 Iteration  2 RMS(Cart)=  0.00000397 RMS(Int)=  0.00000004
 Iteration  3 RMS(Cart)=  0.00000000 RMS(Int)=  0.00000004
 Variable       Old X    -DE/DX   Delta X   Delta X   Delta X     New X
                                 (Linear)    (Quad)   (Total)
    R1        2.63532   0.00000   0.00002   0.00000   0.00003   2.63535
    R2        1.84481   0.00000   0.00000   0.00000   0.00000   1.84481
    R3        2.36207  -0.00003   0.00004   0.00002   0.00006   2.36213
    R4        2.68357  -0.00001   0.00003   0.00006   0.00009   2.68366
    R5        2.60736   0.00004   0.00000   0.00000   0.00000   2.60736
    R6        1.91010  -0.00001  -0.00001  -0.00002  -0.00003   1.91008
    R7        2.65505   0.00003   0.00000  -0.00007  -0.00007   2.65498
    R8        2.66110   0.00001   0.00000   0.00006   0.00006   2.66116
    R9        2.64272  -0.00003   0.00001   0.00007   0.00008   2.64281
   R10        2.04067   0.00000  -0.00003  -0.00001  -0.00004   2.04063
   R11        2.63041   0.00001  -0.00003  -0.00003  -0.00006   2.63035
   R12        2.05449   0.00000   0.00000  -0.00001   0.00000   2.05449
   R13        2.64166  -0.00001  -0.00003  -0.00006  -0.00009   2.64156
   R14        2.05406   0.00000   0.00000  -0.00001  -0.00001   2.05405
   R15        2.64366   0.00000   0.00003   0.00005   0.00008   2.64374
   R16        2.04712   0.00000  -0.00001   0.00000   0.00000   2.04712
   R17        2.87170   0.00001  -0.00002   0.00001  -0.00001   2.87169
   R18        2.07283   0.00000   0.00000   0.00002   0.00002   2.07285
   R19        2.05978   0.00001   0.00002   0.00001   0.00003   2.05981
   R20        2.07256  -0.00001   0.00000  -0.00002  -0.00002   2.07254
    A1        1.94728   0.00001   0.00002   0.00007   0.00009   1.94737
    A2        2.24734  -0.00001   0.00000  -0.00003  -0.00002   2.24732
    A3        2.00610   0.00000  -0.00004   0.00000  -0.00004   2.00606
    A4        2.02975   0.00001   0.00004   0.00002   0.00006   2.02981
    A5        2.15269   0.00003   0.00011   0.00006   0.00017   2.15286
    A6        2.05080  -0.00001  -0.00012  -0.00004  -0.00015   2.05065
    A7        2.07970  -0.00002   0.00001  -0.00003  -0.00002   2.07968
    A8        2.08906   0.00001   0.00001   0.00002   0.00003   2.08909
    A9        2.08442  -0.00003  -0.00003   0.00005   0.00002   2.08444
   A10        2.10971   0.00002   0.00002  -0.00007  -0.00005   2.10966
   A11        2.11080   0.00001  -0.00002   0.00001  -0.00001   2.11078
   A12        2.09066   0.00000  -0.00001  -0.00002  -0.00003   2.09063
   A13        2.08173  -0.00001   0.00003   0.00002   0.00005   2.08177
   A14        2.10631   0.00001  -0.00002   0.00001  -0.00001   2.10629
   A15        2.07830   0.00000  -0.00001  -0.00005  -0.00007   2.07824
   A16        2.09857  -0.00001   0.00003   0.00005   0.00008   2.09865
   A17        2.08812   0.00000   0.00001   0.00002   0.00003   2.08815
   A18        2.11704  -0.00001   0.00000   0.00003   0.00003   2.11707
   A19        2.07802   0.00001  -0.00002  -0.00004  -0.00006   2.07796
   A20        2.15020   0.00001   0.00007   0.00009   0.00016   2.15036
   A21        2.04061  -0.00001  -0.00007  -0.00007  -0.00015   2.04046
   A22        2.09239   0.00000   0.00001  -0.00002  -0.00002   2.09237
   A23        2.15943   0.00000   0.00005  -0.00002   0.00003   2.15946
   A24        2.12901   0.00001  -0.00006  -0.00002  -0.00008   2.12892
   A25        1.99474  -0.00001   0.00001   0.00004   0.00005   1.99480
   A26        1.94098  -0.00002  -0.00007  -0.00022  -0.00029   1.94070
   A27        1.89219   0.00001  -0.00001   0.00001   0.00000   1.89219
   A28        1.94456   0.00000   0.00005   0.00022   0.00027   1.94482
   A29        1.89894   0.00000   0.00000  -0.00010  -0.00011   1.89884
   A30        1.88578   0.00001  -0.00001  -0.00001  -0.00001   1.88576
   A31        1.90061   0.00000   0.00004   0.00010   0.00014   1.90075
    D1        0.00001   0.00000   0.00002   0.00006   0.00008   0.00008
    D2       -3.14157   0.00000   0.00002   0.00005   0.00007  -3.14150
    D3        0.00107   0.00000   0.00004   0.00025   0.00029   0.00136
    D4       -3.14052   0.00000   0.00004   0.00025   0.00029  -3.14023
    D5       -3.14133   0.00000   0.00004   0.00014   0.00018  -3.14115
    D6        0.00027   0.00000   0.00005   0.00013   0.00018   0.00044
    D7       -0.00174   0.00000  -0.00032  -0.00025  -0.00056  -0.00230
    D8        3.13711   0.00000   0.00013  -0.00057  -0.00045   3.13667
    D9        3.14067   0.00000  -0.00032  -0.00013  -0.00045   3.14022
   D10       -0.00366   0.00000   0.00012  -0.00046  -0.00033  -0.00399
   D11       -3.14156   0.00000   0.00001   0.00000   0.00000  -3.14156
   D12        0.00008   0.00000   0.00000  -0.00001  -0.00001   0.00007
   D13        0.00002   0.00000   0.00000   0.00000   0.00001   0.00003
   D14       -3.14152   0.00000   0.00000  -0.00001  -0.00001  -3.14153
   D15        3.14153   0.00000  -0.00001   0.00001   0.00000   3.14153
   D16        0.00001   0.00000   0.00000   0.00002   0.00002   0.00003
   D17       -0.00005   0.00000   0.00000   0.00000   0.00000  -0.00005
   D18       -3.14157   0.00000   0.00000   0.00001   0.00001  -3.14156
   D19        0.00001   0.00000   0.00000  -0.00001  -0.00001   0.00000
   D20       -3.14155   0.00000   0.00000   0.00000   0.00000  -3.14155
   D21        3.14155   0.00000   0.00000   0.00000   0.00001   3.14156
   D22       -0.00001   0.00000   0.00001   0.00001   0.00001   0.00001
   D23        0.00004   0.00000   0.00000   0.00000   0.00000   0.00005
   D24       -3.14154   0.00000   0.00000   0.00000   0.00001  -3.14153
   D25        3.14157   0.00000   0.00000  -0.00001  -0.00002   3.14155
   D26       -0.00002   0.00000   0.00000   0.00000  -0.00001  -0.00003
   D27        3.14159   0.00000   0.00001  -0.00001   0.00000   3.14159
   D28       -0.00002   0.00000   0.00000   0.00001   0.00001  -0.00001
   D29       -0.00003   0.00000   0.00000  -0.00001  -0.00001  -0.00004
   D30        3.14154   0.00000   0.00000   0.00000   0.00000   3.14154
   D31        3.14157   0.00000  -0.00001   0.00001   0.00000   3.14157
   D32       -0.00001   0.00000   0.00000   0.00000   0.00000  -0.00001
   D33       -0.00003   0.00000  -0.00001   0.00000   0.00000  -0.00004
   D34        3.14158   0.00000   0.00000  -0.00001  -0.00001   3.14156
   D35        2.05270  -0.00001  -0.00071  -0.00449  -0.00520   2.04750
   D36       -0.03429  -0.00001  -0.00067  -0.00423  -0.00490  -0.03918
   D37       -2.12549  -0.00001  -0.00074  -0.00450  -0.00524  -2.13072
   D38       -1.08621  -0.00001  -0.00115  -0.00417  -0.00532  -1.09153
   D39        3.10999  -0.00001  -0.00110  -0.00392  -0.00501   3.10498
   D40        1.01879  -0.00001  -0.00117  -0.00418  -0.00535   1.01344
         Item               Value     Threshold  Converged?
 Maximum Force            0.000036     0.000450     YES
 RMS     Force            0.000011     0.000300     YES
 Maximum Displacement     0.008200     0.001800     NO 
 RMS     Displacement     0.001771     0.001200     NO 
 Predicted change in Energy=-1.540333D-07
 GradGradGradGradGradGradGradGradGradGradGradGradGradGradGradGradGradGrad

                          Input orientation:                          
 ---------------------------------------------------------------------
 Center     Atomic      Atomic             Coordinates (Angstroms)
 Number     Number       Type             X           Y           Z
 ---------------------------------------------------------------------
      1          8           0        3.922428    0.376924   -0.002160
      2          8           0       -2.621556    1.380475    0.002120
      3          7           0       -1.592165   -0.698421    0.004080
      4          6           0       -0.215457   -0.349926    0.002471
      5          6           0        0.245299    0.977327    0.000649
      6          6           0        0.721313   -1.401383    0.002736
      7          6           0        1.620162    1.233421   -0.000902
      8          6           0        2.088762   -1.141529    0.001158
      9          6           0        2.541526    0.182189   -0.000664
     10          6           0       -2.693612    0.132567    0.002730
     11          6           0       -4.026878   -0.596587   -0.001599
     12          1           0       -0.469189    1.787014    0.000501
     13          1           0        0.376033   -2.432286    0.004107
     14          1           0       -1.780409   -1.691506    0.005706
     15          1           0        1.965466    2.264072   -0.002265
     16          1           0        2.814449   -1.945824    0.001293
     17          1           0       -4.146337   -1.199222   -0.910315
     18          1           0       -4.824962    0.144899    0.035501
     19          1           0       -4.121415   -1.263990    0.863547
     20          1           0        4.151140    1.325986   -0.003293
 ---------------------------------------------------------------------
                    Distance matrix (angstroms):
                    1          2          3          4          5
     1  O    0.000000
     2  O    6.620488   0.000000
     3  N    5.618465   2.319797   0.000000
     4  C    4.201241   2.963714   1.420133   0.000000
     5  C    3.725825   2.895062   2.486848   1.404955   0.000000
     6  C    3.661904   4.348966   2.417920   1.408226   2.425872
     7  C    2.456424   4.244268   3.748478   2.424149   1.398512
     8  C    2.380765   5.342996   3.707503   2.436404   2.808542
     9  C    1.394566   5.300313   4.226453   2.807866   2.430002
    10  C    6.620553   1.249987   1.379756   2.524688   3.057911
    11  C    8.008695   2.425638   2.436848   3.819396   4.552878
    12  H    4.612446   2.190425   2.727356   2.151951   1.079854
    13  H    4.524226   4.850019   2.622993   2.164737   3.412120
    14  H    6.066367   3.185060   1.010770   2.061291   3.350549
    15  H    2.718645   4.671353   4.629595   3.404326   2.148185
    16  H    2.573477   6.372944   4.579768   3.424503   3.891702
    17  H    8.271273   3.132464   2.758752   4.123870   4.985347
    18  H    8.750548   2.526412   3.341130   4.636106   5.138257
    19  H    8.255026   3.159878   2.730504   4.102861   4.983601
    20  H    0.976232   6.772917   6.089650   4.677166   3.921374
                    6          7          8          9         10
     6  C    0.000000
     7  C    2.783907   0.000000
     8  C    1.391921   2.420739   0.000000
     9  C    2.412652   1.397856   1.399009   0.000000
    10  C    3.743623   4.452027   4.949184   5.235375   0.000000
    11  C    4.815914   5.936159   6.139871   6.614410   1.519632
    12  H    3.403406   2.161447   3.888377   3.411726   2.772230
    13  H    1.087189   3.871084   2.144646   3.394829   4.000148
    14  H    2.518490   4.485434   3.908066   4.710615   2.039899
    15  H    3.870854   1.086959   3.407834   2.160113   5.123510
    16  H    2.162785   3.396163   1.083288   2.145443   5.887143
    17  H    4.956667   6.324341   6.301633   6.889360   2.172032
    18  H    5.757883   6.536499   7.032471   7.366671   2.131637
    19  H    4.920557   6.320604   6.270965   6.872632   2.174855
    20  H    4.382042   2.532671   3.215906   1.974623   6.948015
                   11         12         13         14         15
    11  C    0.000000
    12  H    4.282371   0.000000
    13  H    4.770266   4.303127   0.000000
    14  H    2.499105   3.717448   2.280131   0.000000
    15  H    6.640147   2.480955   4.958036   5.447774   0.000000
    16  H    6.973106   4.971555   2.486470   4.601893   4.294649
    17  H    1.096906   4.823754   4.775819   2.584387   7.083297
    18  H    1.090007   4.655161   5.804585   3.555639   7.113525
    19  H    1.096741   4.836551   4.725525   2.529618   7.088510
    20  H    8.400968   4.643275   5.326922   6.654969   2.378482
                   16         17         18         19         20
    16  H    0.000000
    17  H    7.059815   0.000000
    18  H    7.920410   1.778133   0.000000
    19  H    7.022435   1.775219   1.779215   0.000000
    20  H    3.534331   8.720521   9.053556   8.711748   0.000000
 Stoichiometry    C8H9NO2
 Framework group  C1[X(C8H9NO2)]
 Deg. of freedom    54
 Full point group                 C1      NOp   1
 Largest Abelian subgroup         C1      NOp   1
 Largest concise Abelian subgroup C1      NOp   1
                         Standard orientation:                         
 ---------------------------------------------------------------------
 Center     Atomic      Atomic             Coordinates (Angstroms)
 Number     Number       Type             X           Y           Z
 ---------------------------------------------------------------------
      1          8           0        3.996307   -0.237442    0.001717
      2          8           0       -2.510066   -1.461352   -0.001684
      3          7           0       -1.551449    0.651113   -0.002437
      4          6           0       -0.163759    0.349296   -0.001405
      5          6           0        0.341544   -0.961645   -0.000624
      6          6           0        0.736977    1.431780   -0.001160
      7          6           0        1.724270   -1.171177    0.000416
      8          6           0        2.112421    1.218240   -0.000094
      9          6           0        2.609618   -0.089438    0.000691
     10          6           0       -2.624212   -0.216588   -0.001403
     11          6           0       -3.981334    0.467134    0.003760
     12          1           0       -0.345201   -1.794993   -0.000870
     13          1           0        0.357089    2.450439   -0.001725
     14          1           0       -1.773113    1.637277   -0.003321
     15          1           0        2.104173   -2.189584    0.000973
     16          1           0        2.810540    2.046576    0.000159
     17          1           0       -4.120830    1.064763    0.912926
     18          1           0       -4.753939   -0.300847   -0.033667
     19          1           0       -4.098579    1.131563   -0.860896
     20          1           0        4.256931   -1.178242    0.002129
 ---------------------------------------------------------------------
 Rotational constants (GHZ):      3.5588160      0.5408113      0.4708586
 Standard basis: 6-31G (6D, 7F)
 There are   117 symmetry adapted cartesian basis functions of A   symmetry.
 There are   117 symmetry adapted basis functions of A   symmetry.
   117 basis functions,   278 primitive gaussians,   117 cartesian basis functions
    40 alpha electrons       40 beta electrons
       nuclear repulsion energy       567.8971823764 Hartrees.
 NAtoms=   20 NActive=   20 NUniq=   20 SFac= 1.00D+00 NAtFMM=   60 NAOKFM=F Big=F
 Integral buffers will be    262144 words long.
 Raffenetti 2 integral format.
 Two-electron integral symmetry is turned on.
 One-electron integrals computed using PRISM.
 NBasis=   117 RedAO= T EigKep=  5.94D-04  NBF=   117
 NBsUse=   117 1.00D-06 EigRej= -1.00D+00 NBFU=   117
 Initial guess from the checkpoint file:  "E:\Research\Paracetamol Project\paracetamol_opt_freq.chk"
 B after Tr=     0.000000    0.000000    0.000000
         Rot=    1.000000   -0.000091    0.000006   -0.000001 Ang=  -0.01 deg.
 Keep R1 ints in memory in canonical form, NReq=24825568.
 Requested convergence on RMS density matrix=1.00D-08 within 128 cycles.
 Requested convergence on MAX density matrix=1.00D-06.
 Requested convergence on             energy=1.00D-06.
 No special actions if energy rises.
 SCF Done:  E(RB3LYP) =  -515.339392767     A.U. after    8 cycles
            NFock=  8  Conv=0.29D-08     -V/T= 2.0056
 Calling FoFJK, ICntrl=      2127 FMM=F ISym2X=0 I1Cent= 0 IOpClX= 0 NMat=1 NMatS=1 NMatT=0.
 ***** Axes restored to original set *****
 -------------------------------------------------------------------
 Center     Atomic                   Forces (Hartrees/Bohr)
 Number     Number              X              Y              Z
 -------------------------------------------------------------------
      1        8          -0.000016987    0.000013097    0.000000302
      2        8           0.000016600   -0.000078770   -0.000041718
      3        7           0.000049204   -0.000004496    0.000001239
      4        6          -0.000076999   -0.000059011   -0.000004206
      5        6           0.000099385    0.000058174   -0.000001230
      6        6          -0.000013005    0.000020836   -0.000000160
      7        6          -0.000071392   -0.000010571   -0.000000131
      8        6           0.000038103    0.000022087    0.000001070
      9        6           0.000018258   -0.000026149    0.000000325
     10        6          -0.000022214    0.000104266    0.000060841
     11        6          -0.000015982   -0.000035670    0.000001866
     12        1          -0.000032208   -0.000004432    0.000000402
     13        1           0.000009554   -0.000005665    0.000000755
     14        1           0.000004888   -0.000002848    0.000000030
     15        1           0.000006448    0.000004256   -0.000000700
     16        1          -0.000004858   -0.000002003    0.000001042
     17        1           0.000001563    0.000014349   -0.000010949
     18        1           0.000002460   -0.000011509    0.000003541
     19        1           0.000011656   -0.000003917   -0.000012086
     20        1          -0.000004473    0.000007976   -0.000000231
 -------------------------------------------------------------------
 Cartesian Forces:  Max     0.000104266 RMS     0.000031975

 GradGradGradGradGradGradGradGradGradGradGradGradGradGradGradGradGradGrad
 Berny optimization.
 Using GEDIIS/GDIIS optimizer.
 FormGI is forming the generalized inverse of G from B-inverse, IUseBI=4.
 GSVD:  received Info=                   1 from GESDD.
 Internal  Forces:  Max     0.000074150 RMS     0.000015928
 Search for a local minimum.
 Step number   9 out of a maximum of  101
 All quantities printed in internal units (Hartrees-Bohrs-Radians)
 Mixed Optimization -- En-DIIS/RFO-DIIS
 Swapping is turned off.
 Update second derivatives using D2CorX and points    1    2    3    4    5
                                                      6    7    8    9
 DE= -3.09D-07 DEPred=-1.54D-07 R= 2.00D+00
 Trust test= 2.00D+00 RLast= 1.27D-02 DXMaxT set to 2.52D-01
 ITU=  0  0 -1  0  1  1  1  1  0
     Eigenvalues ---    0.00003   0.01659   0.01708   0.01753   0.02031
     Eigenvalues ---    0.02155   0.02156   0.02157   0.02157   0.02158
     Eigenvalues ---    0.02158   0.02159   0.02168   0.02207   0.04858
     Eigenvalues ---    0.07202   0.07381   0.12847   0.14742   0.16000
     Eigenvalues ---    0.16002   0.16011   0.16103   0.16306   0.16492
     Eigenvalues ---    0.18022   0.22034   0.22221   0.22863   0.24635
     Eigenvalues ---    0.25839   0.26386   0.28867   0.31237   0.34405
     Eigenvalues ---    0.34460   0.34738   0.35151   0.35177   0.35214
     Eigenvalues ---    0.35464   0.40752   0.41471   0.43054   0.43671
     Eigenvalues ---    0.44832   0.45887   0.46957   0.47015   0.49180
     Eigenvalues ---    0.52787   0.54460   0.79454   1.45655
 Eigenvalue     1 is   3.28D-05 Eigenvector:
                          D37       D35       D40       D38       D36
   1                   -0.41756  -0.41557  -0.41376  -0.41177  -0.39162
                          D39       D8        D7        D10       D9
   1                   -0.38782  -0.04101  -0.03712  -0.03172  -0.02783
 En-DIIS/RFO-DIIS IScMMF=        0 using points:     9    8    7    6    5
 RFO step:  Lambda=-8.99760548D-08.
 DidBck=F Rises=F RFO-DIIS coefs:    4.96172    0.00000   -2.59815   -0.84686   -0.51671
 Iteration  1 RMS(Cart)=  0.02380847 RMS(Int)=  0.00069471
 Iteration  2 RMS(Cart)=  0.00071677 RMS(Int)=  0.00000139
 Iteration  3 RMS(Cart)=  0.00000049 RMS(Int)=  0.00000133
 Variable       Old X    -DE/DX   Delta X   Delta X   Delta X     New X
                                 (Linear)    (Quad)   (Total)
    R1        2.63535  -0.00002   0.00026   0.00010   0.00037   2.63571
    R2        1.84481   0.00000   0.00005   0.00000   0.00005   1.84486
    R3        2.36213  -0.00007   0.00049   0.00041   0.00090   2.36304
    R4        2.68366  -0.00005   0.00058   0.00068   0.00126   2.68492
    R5        2.60736   0.00002  -0.00007  -0.00004  -0.00011   2.60725
    R6        1.91008   0.00000  -0.00012  -0.00018  -0.00031   1.90977
    R7        2.65498   0.00004  -0.00056  -0.00072  -0.00127   2.65371
    R8        2.66116   0.00000   0.00028   0.00054   0.00082   2.66198
    R9        2.64281  -0.00005   0.00065   0.00076   0.00141   2.64421
   R10        2.04063   0.00002  -0.00029  -0.00027  -0.00056   2.04007
   R11        2.63035   0.00002  -0.00044  -0.00051  -0.00095   2.62940
   R12        2.05449   0.00000  -0.00003  -0.00005  -0.00007   2.05442
   R13        2.64156   0.00001  -0.00058  -0.00068  -0.00126   2.64031
   R14        2.05405   0.00000  -0.00007  -0.00009  -0.00016   2.05390
   R15        2.64374  -0.00002   0.00056   0.00060   0.00117   2.64491
   R16        2.04712   0.00000  -0.00003   0.00000  -0.00003   2.04709
   R17        2.87169   0.00001  -0.00017  -0.00008  -0.00025   2.87144
   R18        2.07285   0.00000   0.00012   0.00019   0.00031   2.07316
   R19        2.05981  -0.00001   0.00024   0.00019   0.00043   2.06025
   R20        2.07254  -0.00001  -0.00006  -0.00015  -0.00020   2.07234
    A1        1.94737   0.00000   0.00073   0.00053   0.00126   1.94863
    A2        2.24732  -0.00003  -0.00013  -0.00020  -0.00034   2.24698
    A3        2.00606   0.00001  -0.00025  -0.00018  -0.00044   2.00562
    A4        2.02981   0.00002   0.00039   0.00038   0.00077   2.03058
    A5        2.15286  -0.00002   0.00096   0.00107   0.00202   2.15488
    A6        2.05065   0.00003  -0.00102  -0.00098  -0.00200   2.04865
    A7        2.07968  -0.00001   0.00006  -0.00009  -0.00003   2.07965
    A8        2.08909   0.00000   0.00019   0.00021   0.00040   2.08949
    A9        2.08444  -0.00003   0.00035   0.00049   0.00083   2.08527
   A10        2.10966   0.00002  -0.00053  -0.00070  -0.00123   2.10842
   A11        2.11078   0.00000  -0.00023  -0.00011  -0.00034   2.11045
   A12        2.09063   0.00001  -0.00024  -0.00026  -0.00049   2.09013
   A13        2.08177  -0.00001   0.00047   0.00036   0.00083   2.08260
   A14        2.10629   0.00001  -0.00020  -0.00011  -0.00030   2.10599
   A15        2.07824   0.00000  -0.00040  -0.00058  -0.00098   2.07726
   A16        2.09865  -0.00001   0.00060   0.00069   0.00128   2.09994
   A17        2.08815  -0.00001   0.00026   0.00021   0.00047   2.08862
   A18        2.11707  -0.00001   0.00023   0.00028   0.00051   2.11758
   A19        2.07796   0.00001  -0.00049  -0.00049  -0.00098   2.07698
   A20        2.15036  -0.00002   0.00092   0.00119   0.00211   2.15247
   A21        2.04046   0.00002  -0.00084  -0.00107  -0.00191   2.03855
   A22        2.09237   0.00000  -0.00008  -0.00012  -0.00020   2.09217
   A23        2.15946  -0.00002   0.00034   0.00018   0.00052   2.15998
   A24        2.12892   0.00003  -0.00076  -0.00057  -0.00133   2.12759
   A25        1.99480  -0.00001   0.00042   0.00039   0.00081   1.99561
   A26        1.94070  -0.00001  -0.00152  -0.00221  -0.00373   1.93696
   A27        1.89219   0.00000   0.00001  -0.00004  -0.00004   1.89215
   A28        1.94482   0.00000   0.00154   0.00222   0.00375   1.94857
   A29        1.89884   0.00000  -0.00054  -0.00095  -0.00150   1.89734
   A30        1.88576   0.00001  -0.00022  -0.00015  -0.00037   1.88540
   A31        1.90075   0.00000   0.00074   0.00113   0.00187   1.90262
    D1        0.00008   0.00000   0.00042   0.00063   0.00105   0.00113
    D2       -3.14150   0.00000   0.00043   0.00055   0.00097  -3.14053
    D3        0.00136   0.00000   0.00146   0.00257   0.00403   0.00539
    D4       -3.14023   0.00000   0.00146   0.00252   0.00398  -3.13625
    D5       -3.14115   0.00000   0.00105   0.00143   0.00248  -3.13867
    D6        0.00044   0.00000   0.00105   0.00138   0.00244   0.00288
    D7       -0.00230   0.00001  -0.00434  -0.00260  -0.00694  -0.00924
    D8        3.13667  -0.00001  -0.00093  -0.00573  -0.00666   3.13001
    D9        3.14022   0.00001  -0.00393  -0.00144  -0.00537   3.13484
   D10       -0.00399  -0.00001  -0.00052  -0.00458  -0.00510  -0.00909
   D11       -3.14156   0.00000   0.00005  -0.00001   0.00004  -3.14152
   D12        0.00007   0.00000  -0.00005  -0.00010  -0.00015  -0.00008
   D13        0.00003   0.00000   0.00005   0.00004   0.00008   0.00011
   D14       -3.14153   0.00000  -0.00005  -0.00005  -0.00010   3.14156
   D15        3.14153   0.00000  -0.00004   0.00005   0.00001   3.14154
   D16        0.00003   0.00000   0.00008   0.00017   0.00024   0.00027
   D17       -0.00005   0.00000  -0.00004   0.00001  -0.00004  -0.00009
   D18       -3.14156   0.00000   0.00008   0.00012   0.00020  -3.14136
   D19        0.00000   0.00000  -0.00005  -0.00007  -0.00012  -0.00012
   D20       -3.14155   0.00000   0.00002  -0.00001   0.00002  -3.14153
   D21        3.14156   0.00000   0.00005   0.00001   0.00007  -3.14156
   D22        0.00001   0.00000   0.00012   0.00008   0.00020   0.00021
   D23        0.00005   0.00000   0.00004  -0.00001   0.00002   0.00007
   D24       -3.14153   0.00000   0.00006   0.00006   0.00012  -3.14141
   D25        3.14155   0.00000  -0.00008  -0.00013  -0.00021   3.14134
   D26       -0.00003   0.00000  -0.00006  -0.00006  -0.00012  -0.00014
   D27        3.14159   0.00000   0.00005  -0.00002   0.00003  -3.14157
   D28       -0.00001   0.00000   0.00004   0.00007   0.00011   0.00010
   D29       -0.00004   0.00000  -0.00002  -0.00009  -0.00011  -0.00015
   D30        3.14154   0.00000  -0.00003   0.00000  -0.00003   3.14151
   D31        3.14157   0.00000  -0.00005   0.00006   0.00001   3.14158
   D32       -0.00001   0.00000  -0.00004  -0.00002  -0.00006  -0.00007
   D33       -0.00004   0.00000  -0.00006  -0.00001  -0.00008  -0.00012
   D34        3.14156   0.00000  -0.00006  -0.00009  -0.00015   3.14141
   D35        2.04750  -0.00002  -0.02605  -0.04485  -0.07089   1.97660
   D36       -0.03918  -0.00002  -0.02447  -0.04231  -0.06679  -0.10597
   D37       -2.13072  -0.00002  -0.02633  -0.04504  -0.07137  -2.20209
   D38       -1.09153   0.00000  -0.02940  -0.04178  -0.07117  -1.16270
   D39        3.10498   0.00000  -0.02782  -0.03924  -0.06706   3.03791
   D40        1.01344   0.00000  -0.02967  -0.04196  -0.07164   0.94180
         Item               Value     Threshold  Converged?
 Maximum Force            0.000074     0.000450     YES
 RMS     Force            0.000016     0.000300     YES
 Maximum Displacement     0.109239     0.001800     NO 
 RMS     Displacement     0.023811     0.001200     NO 
 Predicted change in Energy=-2.887733D-06
 GradGradGradGradGradGradGradGradGradGradGradGradGradGradGradGradGradGrad

                          Input orientation:                          
 ---------------------------------------------------------------------
 Center     Atomic      Atomic             Coordinates (Angstroms)
 Number     Number       Type             X           Y           Z
 ---------------------------------------------------------------------
      1          8           0        3.923406    0.374289   -0.004260
      2          8           0       -2.624639    1.379904   -0.005005
      3          7           0       -1.592452   -0.698307    0.011285
      4          6           0       -0.215586   -0.347758    0.006823
      5          6           0        0.245788    0.978527   -0.003464
      6          6           0        0.720832   -1.400089    0.013225
      7          6           0        1.621442    1.234417   -0.007322
      8          6           0        2.087855   -1.140718    0.009382
      9          6           0        2.541801    0.183209   -0.000902
     10          6           0       -2.694731    0.131419    0.000986
     11          6           0       -4.027655   -0.598064   -0.005861
     12          1           0       -0.467314    1.789024   -0.008440
     13          1           0        0.374428   -2.430545    0.020979
     14          1           0       -1.778849   -1.691526    0.021446
     15          1           0        1.965953    2.265217   -0.015241
     16          1           0        2.813721   -1.944816    0.014093
     17          1           0       -4.170570   -1.146291   -0.945319
     18          1           0       -4.824376    0.139509    0.093307
     19          1           0       -4.100295   -1.315652    0.820213
     20          1           0        4.155839    1.322451   -0.010525
 ---------------------------------------------------------------------
                    Distance matrix (angstroms):
                    1          2          3          4          5
     1  O    0.000000
     2  O    6.624813   0.000000
     3  N    5.619199   2.320482   0.000000
     4  C    4.201515   2.964539   1.420797   0.000000
     5  C    3.726926   2.898354   2.488196   1.404281   0.000000
     6  C    3.661312   4.349812   2.417392   1.408658   2.425646
     7  C    2.457410   4.248573   3.750318   2.424490   1.399257
     8  C    2.380058   5.344281   3.706804   2.436110   2.807948
     9  C    1.394759   5.303225   4.227206   2.808055   2.429859
    10  C    6.622594   1.250465   1.379700   2.525035   3.060108
    11  C    8.010295   2.425038   2.437325   3.820298   4.554993
    12  H    4.613016   2.195778   2.730044   2.151613   1.079558
    13  H    4.523601   4.849185   2.620946   2.164790   3.411585
    14  H    6.064978   3.185865   1.010608   2.061484   3.350964
    15  H    2.721645   4.675192   4.630921   3.404004   2.148181
    16  H    2.570989   6.374158   4.579100   3.424522   3.891082
    17  H    8.289162   3.107371   2.786122   4.145615   4.990608
    18  H    8.751475   2.527269   3.339759   4.635283   5.140027
    19  H    8.241081   3.181912   2.706428   4.085264   4.982985
    20  H    0.976257   6.780724   6.093176   4.679665   3.925154
                    6          7          8          9         10
     6  C    0.000000
     7  C    2.784267   0.000000
     8  C    1.391417   2.420554   0.000000
     9  C    2.413082   1.397190   1.399627   0.000000
    10  C    3.743225   4.454888   4.948892   5.236789   0.000000
    11  C    4.815779   5.938879   6.139557   6.615751   1.519499
    12  H    3.403321   2.161133   3.887492   3.410788   2.776531
    13  H    1.087150   3.871406   2.144673   3.395540   3.997974
    14  H    2.516626   4.485972   3.905757   4.709899   2.040193
    15  H    3.871125   1.086877   3.408205   2.160223   5.125947
    16  H    2.162618   3.395513   1.083272   2.145380   5.886762
    17  H    4.990895   6.332063   6.330827   6.907635   2.169364
    18  H    5.755527   6.538923   7.030289   7.366909   2.131660
    19  H    4.888928   6.318698   6.243496   6.858444   2.177328
    20  H    4.383157   2.535927   3.216233   1.975622   6.953345
                   11         12         13         14         15
    11  C    0.000000
    12  H    4.286516   0.000000
    13  H    4.768337   4.302807   0.000000
    14  H    2.500706   3.719575   2.276566   0.000000
    15  H    6.642425   2.479435   4.958270   5.448000   0.000000
    16  H    6.972701   4.970640   2.487193   4.599556   4.294642
    17  H    1.097069   4.817460   4.820793   2.636711   7.082398
    18  H    1.090235   4.659961   5.799825   3.554305   7.116108
    19  H    1.096634   4.850178   4.680267   2.483630   7.093657
    20  H    8.405830   4.646638   5.327761   6.656246   2.384204
                   16         17         18         19         20
    16  H    0.000000
    17  H    7.094959   0.000000
    18  H    7.917778   1.777495   0.000000
    19  H    6.989227   1.775028   1.780500   0.000000
    20  H    3.532269   8.734851   9.058388   8.707093   0.000000
 Stoichiometry    C8H9NO2
 Framework group  C1[X(C8H9NO2)]
 Deg. of freedom    54
 Full point group                 C1      NOp   1
 Largest Abelian subgroup         C1      NOp   1
 Largest concise Abelian subgroup C1      NOp   1
                         Standard orientation:                         
 ---------------------------------------------------------------------
 Center     Atomic      Atomic             Coordinates (Angstroms)
 Number     Number       Type             X           Y           Z
 ---------------------------------------------------------------------
      1          8           0        3.997499   -0.234500    0.004434
      2          8           0       -2.512780   -1.461016   -0.004173
      3          7           0       -1.551482    0.650983   -0.006422
      4          6           0       -0.163547    0.347186   -0.003672
      5          6           0        0.342427   -0.962773   -0.001872
      6          6           0        0.736738    1.430609   -0.002790
      7          6           0        1.725949   -1.172003    0.000892
      8          6           0        2.111752    1.217607   -0.000066
      9          6           0        2.610222   -0.090246    0.001743
     10          6           0       -2.625064   -0.215604   -0.002020
     11          6           0       -3.981903    0.468314    0.009037
     12          1           0       -0.342851   -1.796942   -0.002504
     13          1           0        0.355676    2.448786   -0.003944
     14          1           0       -1.771369    1.637373   -0.010159
     15          1           0        2.105131   -2.190590    0.002209
     16          1           0        2.810003    2.045812    0.000794
     17          1           0       -4.143472    1.005222    0.952004
     18          1           0       -4.753198   -0.295121   -0.095294
     19          1           0       -4.078610    1.188436   -0.812351
     20          1           0        4.261873   -1.174278    0.004591
 ---------------------------------------------------------------------
 Rotational constants (GHZ):      3.5603126      0.5404587      0.4706191
 Standard basis: 6-31G (6D, 7F)
 There are   117 symmetry adapted cartesian basis functions of A   symmetry.
 There are   117 symmetry adapted basis functions of A   symmetry.
   117 basis functions,   278 primitive gaussians,   117 cartesian basis functions
    40 alpha electrons       40 beta electrons
       nuclear repulsion energy       567.8145613974 Hartrees.
 NAtoms=   20 NActive=   20 NUniq=   20 SFac= 1.00D+00 NAtFMM=   60 NAOKFM=F Big=F
 Integral buffers will be    262144 words long.
 Raffenetti 2 integral format.
 Two-electron integral symmetry is turned on.
 One-electron integrals computed using PRISM.
 NBasis=   117 RedAO= T EigKep=  5.94D-04  NBF=   117
 NBsUse=   117 1.00D-06 EigRej= -1.00D+00 NBFU=   117
 Initial guess from the checkpoint file:  "E:\Research\Paracetamol Project\paracetamol_opt_freq.chk"
 B after Tr=     0.000000    0.000000    0.000000
         Rot=    0.999999   -0.001227    0.000074   -0.000016 Ang=  -0.14 deg.
 ExpMin= 1.61D-01 ExpMax= 5.48D+03 ExpMxC= 8.25D+02 IAcc=1 IRadAn=         1 AccDes= 0.00D+00
 Harris functional with IExCor=  402 and IRadAn=       1 diagonalized for initial guess.
 HarFok:  IExCor=  402 AccDes= 0.00D+00 IRadAn=         1 IDoV= 1 UseB2=F ITyADJ=14
 ICtDFT=  3500011 ScaDFX=  1.000000  1.000000  1.000000  1.000000
 FoFCou: FMM=F IPFlag=           0 FMFlag=      100000 FMFlg1=           0
         NFxFlg=           0 DoJE=T BraDBF=F KetDBF=T FulRan=T
         wScrn=  0.000000 ICntrl=     500 IOpCl=  0 I1Cent=   200000004 NGrid=           0
         NMat0=    1 NMatS0=      1 NMatT0=    0 NMatD0=    1 NMtDS0=    0 NMtDT0=    0
 Petite list used in FoFCou.
 Keep R1 ints in memory in canonical form, NReq=24825568.
 Requested convergence on RMS density matrix=1.00D-08 within 128 cycles.
 Requested convergence on MAX density matrix=1.00D-06.
 Requested convergence on             energy=1.00D-06.
 No special actions if energy rises.
 Integral accuracy reduced to 1.0D-05 until final iterations.
 Initial convergence to 1.0D-05 achieved.  Increase integral accuracy.
 SCF Done:  E(RB3LYP) =  -515.339395694     A.U. after   11 cycles
            NFock= 11  Conv=0.90D-08     -V/T= 2.0056
 Calling FoFJK, ICntrl=      2127 FMM=F ISym2X=0 I1Cent= 0 IOpClX= 0 NMat=1 NMatS=1 NMatT=0.
 ***** Axes restored to original set *****
 -------------------------------------------------------------------
 Center     Atomic                   Forces (Hartrees/Bohr)
 Number     Number              X              Y              Z
 -------------------------------------------------------------------
      1        8          -0.000123771    0.000155655    0.000006467
      2        8           0.000264187   -0.000675589   -0.000348712
      3        7           0.000384642    0.000599625   -0.000153748
      4        6          -0.000365522   -0.000839093   -0.000008876
      5        6           0.000485044    0.000323447   -0.000023556
      6        6          -0.000211724    0.000254358   -0.000003747
      7        6          -0.000620740    0.000167876    0.000008011
      8        6           0.000342864    0.000257967    0.000002523
      9        6           0.000258663   -0.000726512    0.000004018
     10        6          -0.000118792    0.000696051    0.000806433
     11        6          -0.000010585   -0.000144884   -0.000189465
     12        1          -0.000268781    0.000117558    0.000009263
     13        1           0.000069227   -0.000043275    0.000003143
     14        1          -0.000066225   -0.000094174   -0.000042588
     15        1           0.000098739    0.000007566   -0.000003515
     16        1          -0.000020737   -0.000042153    0.000004721
     17        1          -0.000079415    0.000056573   -0.000029621
     18        1           0.000096201   -0.000129540   -0.000004960
     19        1           0.000011143    0.000051574   -0.000028622
     20        1          -0.000124420    0.000006970   -0.000007168
 -------------------------------------------------------------------
 Cartesian Forces:  Max     0.000839093 RMS     0.000290981

 GradGradGradGradGradGradGradGradGradGradGradGradGradGradGradGradGradGrad
 Berny optimization.
 Using GEDIIS/GDIIS optimizer.
 FormGI is forming the generalized inverse of G from B-inverse, IUseBI=4.
 GSVD:  received Info=                   1 from GESDD.
 Internal  Forces:  Max     0.000654616 RMS     0.000183898
 Search for a local minimum.
 Step number  10 out of a maximum of  101
 All quantities printed in internal units (Hartrees-Bohrs-Radians)
 Mixed Optimization -- En-DIIS/RFO-DIIS
 Swapping is turned off.
 Update second derivatives using D2CorX and points    1    2    3    4    5
                                                      6    7    8    9   10
 DE= -2.93D-06 DEPred=-2.89D-06 R= 1.01D+00
 TightC=F SS=  1.41D+00  RLast= 1.72D-01 DXNew= 4.2426D-01 5.1563D-01
 Trust test= 1.01D+00 RLast= 1.72D-01 DXMaxT set to 4.24D-01
 ITU=  1  0  0 -1  0  1  1  1  1  0
     Eigenvalues ---    0.00000   0.01660   0.01709   0.01758   0.02031
     Eigenvalues ---    0.02155   0.02156   0.02157   0.02157   0.02158
     Eigenvalues ---    0.02158   0.02159   0.02168   0.02207   0.04645
     Eigenvalues ---    0.07217   0.07381   0.13135   0.15273   0.16000
     Eigenvalues ---    0.16006   0.16021   0.16136   0.16319   0.16628
     Eigenvalues ---    0.18086   0.22062   0.22196   0.22849   0.24633
     Eigenvalues ---    0.25918   0.26312   0.29358   0.31305   0.34408
     Eigenvalues ---    0.34504   0.34796   0.35161   0.35201   0.35212
     Eigenvalues ---    0.35525   0.40541   0.41644   0.43379   0.44348
     Eigenvalues ---    0.44841   0.46312   0.46949   0.47903   0.51229
     Eigenvalues ---    0.52813   0.54425   0.80542   2.15661
 Eigenvalue     1 is   2.14D-06 Eigenvector:
                          D37       D35       D40       D38       D36
   1                    0.41886   0.41658   0.41261   0.41033   0.39271
                          D39       D8        D7        D10       D9
   1                    0.38645   0.04233   0.03592   0.03292   0.02651
 En-DIIS/RFO-DIIS IScMMF=        0 using points:    10    9    8    7    6
 RFO step:  Lambda=-2.31699138D-06.
 DidBck=T Rises=F RFO-DIIS coefs:   -0.65269    0.00000   12.67717   -6.36661   -4.65787
 Iteration  1 RMS(Cart)=  0.02958615 RMS(Int)=  0.00107495
 Iteration  2 RMS(Cart)=  0.00110931 RMS(Int)=  0.00000132
 Iteration  3 RMS(Cart)=  0.00000117 RMS(Int)=  0.00000096
 Iteration  4 RMS(Cart)=  0.00000000 RMS(Int)=  0.00000096
 Variable       Old X    -DE/DX   Delta X   Delta X   Delta X     New X
                                 (Linear)    (Quad)   (Total)
    R1        2.63571  -0.00022  -0.00007  -0.00029  -0.00036   2.63535
    R2        1.84486  -0.00003   0.00011  -0.00017  -0.00006   1.84480
    R3        2.36304  -0.00065  -0.00097   0.00013  -0.00084   2.36220
    R4        2.68492  -0.00056  -0.00168   0.00057  -0.00111   2.68381
    R5        2.60725  -0.00020   0.00025  -0.00008   0.00017   2.60742
    R6        1.90977   0.00010   0.00041  -0.00014   0.00027   1.91004
    R7        2.65371   0.00021   0.00180  -0.00061   0.00119   2.65489
    R8        2.66198  -0.00008  -0.00139   0.00059  -0.00079   2.66119
    R9        2.64421  -0.00042  -0.00190   0.00058  -0.00132   2.64289
   R10        2.04007   0.00026   0.00058  -0.00010   0.00048   2.04055
   R11        2.62940   0.00020   0.00130  -0.00035   0.00095   2.63035
   R12        2.05442   0.00002   0.00014  -0.00009   0.00005   2.05446
   R13        2.64031   0.00032   0.00146  -0.00026   0.00120   2.64150
   R14        2.05390   0.00004   0.00023  -0.00010   0.00012   2.05402
   R15        2.64491  -0.00027  -0.00133   0.00017  -0.00116   2.64375
   R16        2.04709   0.00002  -0.00004   0.00008   0.00004   2.04713
   R17        2.87144   0.00006   0.00016   0.00012   0.00027   2.87171
   R18        2.07316   0.00000  -0.00049   0.00014  -0.00036   2.07281
   R19        2.06025  -0.00015  -0.00030  -0.00009  -0.00039   2.05985
   R20        2.07234  -0.00006   0.00030   0.00000   0.00030   2.07264
    A1        1.94863  -0.00022  -0.00057  -0.00061  -0.00118   1.94745
    A2        2.24698  -0.00029   0.00028   0.00006   0.00034   2.24732
    A3        2.00562   0.00020   0.00036   0.00007   0.00043   2.00605
    A4        2.03058   0.00010  -0.00063  -0.00013  -0.00076   2.02982
    A5        2.15488  -0.00063  -0.00241   0.00054  -0.00187   2.15301
    A6        2.04865   0.00056   0.00227  -0.00036   0.00191   2.05056
    A7        2.07965   0.00007   0.00014  -0.00018  -0.00004   2.07961
    A8        2.08949  -0.00008  -0.00037   0.00002  -0.00034   2.08915
    A9        2.08527  -0.00008  -0.00149   0.00074  -0.00076   2.08452
   A10        2.10842   0.00017   0.00186  -0.00076   0.00110   2.10952
   A11        2.11045   0.00000   0.00016   0.00019   0.00035   2.11080
   A12        2.09013   0.00008   0.00058  -0.00012   0.00046   2.09060
   A13        2.08260  -0.00008  -0.00074  -0.00007  -0.00082   2.08179
   A14        2.10599   0.00004   0.00024   0.00007   0.00031   2.10630
   A15        2.07726   0.00008   0.00147  -0.00057   0.00091   2.07817
   A16        2.09994  -0.00012  -0.00171   0.00049  -0.00122   2.09872
   A17        2.08862  -0.00013  -0.00037  -0.00005  -0.00043   2.08820
   A18        2.11758   0.00001  -0.00077   0.00025  -0.00052   2.11705
   A19        2.07698   0.00011   0.00114  -0.00019   0.00095   2.07793
   A20        2.15247  -0.00040  -0.00291   0.00104  -0.00187   2.15060
   A21        2.03855   0.00030   0.00270  -0.00098   0.00172   2.04027
   A22        2.09217   0.00010   0.00021  -0.00006   0.00015   2.09231
   A23        2.15998  -0.00036  -0.00030  -0.00016  -0.00047   2.15951
   A24        2.12759   0.00035   0.00114   0.00019   0.00133   2.12892
   A25        1.99561   0.00002  -0.00082  -0.00003  -0.00086   1.99475
   A26        1.93696   0.00007   0.00541  -0.00092   0.00449   1.94145
   A27        1.89215   0.00001   0.00031  -0.00027   0.00004   1.89219
   A28        1.94857  -0.00003  -0.00581   0.00111  -0.00470   1.94387
   A29        1.89734  -0.00006   0.00240  -0.00037   0.00204   1.89937
   A30        1.88540   0.00002   0.00043  -0.00016   0.00027   1.88567
   A31        1.90262  -0.00002  -0.00270   0.00060  -0.00210   1.90052
    D1        0.00113  -0.00001  -0.00157   0.00046  -0.00111   0.00002
    D2       -3.14053  -0.00001  -0.00128   0.00020  -0.00108   3.14158
    D3        0.00539   0.00001  -0.00608   0.00152  -0.00456   0.00083
    D4       -3.13625   0.00000  -0.00596   0.00151  -0.00445  -3.14070
    D5       -3.13867  -0.00002  -0.00359   0.00093  -0.00267  -3.14134
    D6        0.00288  -0.00002  -0.00347   0.00091  -0.00256   0.00032
    D7       -0.00924   0.00012   0.00929  -0.00179   0.00750  -0.00175
    D8        3.13001  -0.00012   0.01138  -0.00251   0.00888   3.13888
    D9        3.13484   0.00014   0.00677  -0.00119   0.00558   3.14043
   D10       -0.00909  -0.00010   0.00887  -0.00191   0.00696  -0.00213
   D11       -3.14152   0.00000   0.00006  -0.00007  -0.00001  -3.14153
   D12       -0.00008   0.00000   0.00037  -0.00020   0.00018   0.00010
   D13        0.00011   0.00000  -0.00007  -0.00005  -0.00012  -0.00001
   D14        3.14156   0.00001   0.00025  -0.00018   0.00007  -3.14156
   D15        3.14154   0.00001  -0.00014   0.00009  -0.00005   3.14149
   D16        0.00027   0.00000  -0.00039   0.00011  -0.00027   0.00000
   D17       -0.00009   0.00000  -0.00002   0.00008   0.00005  -0.00004
   D18       -3.14136   0.00000  -0.00027   0.00010  -0.00017  -3.14153
   D19       -0.00012   0.00000   0.00015   0.00000   0.00015   0.00003
   D20       -3.14153   0.00000   0.00007  -0.00009  -0.00002  -3.14155
   D21       -3.14156  -0.00001  -0.00017   0.00013  -0.00004   3.14158
   D22        0.00021  -0.00001  -0.00025   0.00004  -0.00021   0.00000
   D23        0.00007   0.00000   0.00003  -0.00004  -0.00001   0.00006
   D24       -3.14141   0.00000  -0.00014   0.00005  -0.00009  -3.14151
   D25        3.14134   0.00000   0.00028  -0.00007   0.00021   3.14155
   D26       -0.00014   0.00000   0.00010   0.00003   0.00013  -0.00001
   D27       -3.14157   0.00000   0.00015  -0.00023  -0.00008   3.14154
   D28        0.00010   0.00000  -0.00014   0.00003  -0.00011  -0.00001
   D29       -0.00015   0.00000   0.00023  -0.00014   0.00009  -0.00006
   D30        3.14151   0.00000  -0.00007   0.00013   0.00006   3.14157
   D31        3.14158   0.00000  -0.00022   0.00024   0.00001  -3.14159
   D32       -0.00007   0.00000   0.00005  -0.00001   0.00004  -0.00003
   D33       -0.00012   0.00000  -0.00005   0.00014   0.00009  -0.00002
   D34        3.14141   0.00000   0.00022  -0.00011   0.00012   3.14153
   D35        1.97660  -0.00018   0.10860  -0.01929   0.08930   2.06591
   D36       -0.10597  -0.00015   0.10220  -0.01813   0.08408  -0.02189
   D37       -2.20209  -0.00012   0.10890  -0.01938   0.08952  -2.11257
   D38       -1.16270   0.00006   0.10654  -0.01859   0.08795  -1.07474
   D39        3.03791   0.00009   0.10015  -0.01742   0.08273   3.12064
   D40        0.94180   0.00012   0.10684  -0.01867   0.08817   1.02997
         Item               Value     Threshold  Converged?
 Maximum Force            0.000655     0.000450     NO 
 RMS     Force            0.000184     0.000300     YES
 Maximum Displacement     0.135434     0.001800     NO 
 RMS     Displacement     0.029592     0.001200     NO 
 Predicted change in Energy=-8.838890D-06
 GradGradGradGradGradGradGradGradGradGradGradGradGradGradGradGradGradGrad

                          Input orientation:                          
 ---------------------------------------------------------------------
 Center     Atomic      Atomic             Coordinates (Angstroms)
 Number     Number       Type             X           Y           Z
 ---------------------------------------------------------------------
      1          8           0        3.922543    0.376629   -0.001533
      2          8           0       -2.621881    1.380542    0.003753
      3          7           0       -1.592263   -0.698343    0.002112
      4          6           0       -0.215504   -0.349734    0.001320
      5          6           0        0.245353    0.977436    0.001632
      6          6           0        0.721251   -1.401221    0.000083
      7          6           0        1.620271    1.233499    0.000726
      8          6           0        2.088711   -1.141414   -0.000869
      9          6           0        2.541585    0.182269   -0.000528
     10          6           0       -2.693792    0.132591    0.002381
     11          6           0       -4.026992   -0.596714   -0.000478
     12          1           0       -0.468974    1.787208    0.002611
     13          1           0        0.375922   -2.432094   -0.000229
     14          1           0       -1.780430   -1.691424    0.002004
     15          1           0        1.965529    2.264149    0.001016
     16          1           0        2.814358   -1.945752   -0.001903
     17          1           0       -4.141001   -1.212657   -0.900902
     18          1           0       -4.825333    0.145122    0.021639
     19          1           0       -4.126344   -1.251496    0.873790
     20          1           0        4.151590    1.325603   -0.001224
 ---------------------------------------------------------------------
                    Distance matrix (angstroms):
                    1          2          3          4          5
     1  O    0.000000
     2  O    6.620978   0.000000
     3  N    5.618600   2.319887   0.000000
     4  C    4.201315   2.963868   1.420210   0.000000
     5  C    3.725950   2.895433   2.486980   1.404909   0.000000
     6  C    3.661833   4.349109   2.417931   1.408239   2.425797
     7  C    2.456560   4.244700   3.748652   2.424189   1.398559
     8  C    2.380629   5.343217   3.707546   2.436426   2.808469
     9  C    1.394568   5.300685   4.226605   2.807948   2.430016
    10  C    6.620835   1.250022   1.379788   2.524787   3.058159
    11  C    8.008902   2.425674   2.436850   3.819482   4.553118
    12  H    4.612501   2.190979   2.727589   2.151922   1.079812
    13  H    4.524096   4.850055   2.622909   2.164719   3.412029
    14  H    6.066362   3.185125   1.010751   2.061341   3.350613
    15  H    2.718941   4.671734   4.629714   3.404305   2.148171
    16  H    2.573233   6.373144   4.579777   3.424522   3.891635
    17  H    8.267735   3.138600   2.752456   4.119244   4.985096
    18  H    8.750970   2.526219   3.341340   4.636359   5.138580
    19  H    8.258424   3.154045   2.736305   4.107195   4.984028
    20  H    0.976225   6.773695   6.090010   4.677421   3.921723
                    6          7          8          9         10
     6  C    0.000000
     7  C    2.783879   0.000000
     8  C    1.391922   2.420672   0.000000
     9  C    2.412686   1.397822   1.399011   0.000000
    10  C    3.743675   4.452318   4.949286   5.235614   0.000000
    11  C    4.815916   5.936435   6.139913   6.614607   1.519643
    12  H    3.403339   2.161375   3.888263   3.411643   2.772647
    13  H    1.087176   3.871043   2.144645   3.394847   4.000095
    14  H    2.518458   4.485525   3.908039   4.710684   2.039917
    15  H    3.870810   1.086943   3.407791   2.160109   5.123750
    16  H    2.162779   3.396099   1.083293   2.145432   5.887210
    17  H    4.948619   6.323675   6.294795   6.885743   2.172562
    18  H    5.758146   6.536881   7.032758   7.367046   2.131665
    19  H    4.927977   6.321473   6.277265   6.876147   2.174226
    20  H    4.382099   2.532995   3.215843   1.974672   6.948564
                   11         12         13         14         15
    11  C    0.000000
    12  H    4.282825   0.000000
    13  H    4.770144   4.303064   0.000000
    14  H    2.499088   3.717633   2.280010   0.000000
    15  H    6.640396   2.480782   4.957979   5.447822   0.000000
    16  H    6.973090   4.971446   2.486464   4.601823   4.294623
    17  H    1.096881   4.826936   4.764539   2.572305   7.084585
    18  H    1.090026   4.655607   5.804789   3.555942   7.113826
    19  H    1.096793   4.834153   4.735833   2.541036   7.087483
    20  H    8.401458   4.643565   5.326909   6.655172   2.379019
                   16         17         18         19         20
    16  H    0.000000
    17  H    7.051429   0.000000
    18  H    7.920681   1.778470   0.000000
    19  H    7.030091   1.775178   1.779126   0.000000
    20  H    3.534113   8.718902   9.054237   8.713856   0.000000
 Stoichiometry    C8H9NO2
 Framework group  C1[X(C8H9NO2)]
 Deg. of freedom    54
 Full point group                 C1      NOp   1
 Largest Abelian subgroup         C1      NOp   1
 Largest concise Abelian subgroup C1      NOp   1
                         Standard orientation:                         
 ---------------------------------------------------------------------
 Center     Atomic      Atomic             Coordinates (Angstroms)
 Number     Number       Type             X           Y           Z
 ---------------------------------------------------------------------
      1          8           0        3.996449   -0.237147    0.001023
      2          8           0       -2.510362   -1.461385   -0.001104
      3          7           0       -1.551499    0.651069   -0.001381
      4          6           0       -0.163758    0.349129   -0.000839
      5          6           0        0.341633   -0.961730   -0.000340
      6          6           0        0.736973    1.431635   -0.000726
      7          6           0        1.724410   -1.171238    0.000248
      8          6           0        2.112423    1.218133   -0.000087
      9          6           0        2.609718   -0.089510    0.000384
     10          6           0       -2.624354   -0.216571   -0.000629
     11          6           0       -3.981410    0.467320    0.002182
     12          1           0       -0.344955   -1.795151   -0.000455
     13          1           0        0.357046    2.450265   -0.001049
     14          1           0       -1.773078    1.637233   -0.001938
     15          1           0        2.104260   -2.189648    0.000593
     16          1           0        2.810508    2.046506    0.000084
     17          1           0       -4.115834    1.079742    0.902193
     18          1           0       -4.754264   -0.301055   -0.019090
     19          1           0       -4.103106    1.117719   -0.872533
     20          1           0        4.257396   -1.177850    0.001332
 ---------------------------------------------------------------------
 Rotational constants (GHZ):      3.5589652      0.5407675      0.4708277
 Standard basis: 6-31G (6D, 7F)
 There are   117 symmetry adapted cartesian basis functions of A   symmetry.
 There are   117 symmetry adapted basis functions of A   symmetry.
   117 basis functions,   278 primitive gaussians,   117 cartesian basis functions
    40 alpha electrons       40 beta electrons
       nuclear repulsion energy       567.8869596342 Hartrees.
 NAtoms=   20 NActive=   20 NUniq=   20 SFac= 1.00D+00 NAtFMM=   60 NAOKFM=F Big=F
 Integral buffers will be    262144 words long.
 Raffenetti 2 integral format.
 Two-electron integral symmetry is turned on.
 One-electron integrals computed using PRISM.
 NBasis=   117 RedAO= T EigKep=  5.94D-04  NBF=   117
 NBsUse=   117 1.00D-06 EigRej= -1.00D+00 NBFU=   117
 Initial guess from the checkpoint file:  "E:\Research\Paracetamol Project\paracetamol_opt_freq.chk"
 B after Tr=     0.000000    0.000000    0.000000
         Rot=    0.999999    0.001531   -0.000090    0.000016 Ang=   0.18 deg.
 ExpMin= 1.61D-01 ExpMax= 5.48D+03 ExpMxC= 8.25D+02 IAcc=1 IRadAn=         1 AccDes= 0.00D+00
 Harris functional with IExCor=  402 and IRadAn=       1 diagonalized for initial guess.
 HarFok:  IExCor=  402 AccDes= 0.00D+00 IRadAn=         1 IDoV= 1 UseB2=F ITyADJ=14
 ICtDFT=  3500011 ScaDFX=  1.000000  1.000000  1.000000  1.000000
 FoFCou: FMM=F IPFlag=           0 FMFlag=      100000 FMFlg1=           0
         NFxFlg=           0 DoJE=T BraDBF=F KetDBF=T FulRan=T
         wScrn=  0.000000 ICntrl=     500 IOpCl=  0 I1Cent=   200000004 NGrid=           0
         NMat0=    1 NMatS0=      1 NMatT0=    0 NMatD0=    1 NMtDS0=    0 NMtDT0=    0
 Petite list used in FoFCou.
 Keep R1 ints in memory in canonical form, NReq=24825568.
 Requested convergence on RMS density matrix=1.00D-08 within 128 cycles.
 Requested convergence on MAX density matrix=1.00D-06.
 Requested convergence on             energy=1.00D-06.
 No special actions if energy rises.
 Integral accuracy reduced to 1.0D-05 until final iterations.
 Initial convergence to 1.0D-05 achieved.  Increase integral accuracy.
 SCF Done:  E(RB3LYP) =  -515.339391721     A.U. after   11 cycles
            NFock= 11  Conv=0.95D-08     -V/T= 2.0056
 Calling FoFJK, ICntrl=      2127 FMM=F ISym2X=0 I1Cent= 0 IOpClX= 0 NMat=1 NMatS=1 NMatT=0.
 ***** Axes restored to original set *****
 -------------------------------------------------------------------
 Center     Atomic                   Forces (Hartrees/Bohr)
 Number     Number              X              Y              Z
 -------------------------------------------------------------------
      1        8          -0.000023365    0.000034013    0.000001415
      2        8           0.000035629   -0.000136312   -0.000052357
      3        7           0.000081074    0.000068340   -0.000016394
      4        6          -0.000108010   -0.000110004   -0.000006165
      5        6           0.000129322    0.000074426    0.000003055
      6        6          -0.000003815    0.000028259   -0.000002122
      7        6          -0.000094320   -0.000000209   -0.000000652
      8        6           0.000018173    0.000000879    0.000002527
      9        6           0.000025223   -0.000069250   -0.000003554
     10        6          -0.000013392    0.000144831    0.000110002
     11        6          -0.000001300   -0.000044422   -0.000025430
     12        1          -0.000061651    0.000015029    0.000000594
     13        1           0.000010195   -0.000015341    0.000000946
     14        1           0.000003720   -0.000019848   -0.000004004
     15        1           0.000013426    0.000012468   -0.000000576
     16        1          -0.000007104    0.000000607    0.000001812
     17        1          -0.000011312    0.000015517   -0.000005254
     18        1           0.000013274   -0.000031207    0.000004335
     19        1           0.000002027    0.000015663   -0.000008497
     20        1          -0.000007795    0.000016563    0.000000319
 -------------------------------------------------------------------
 Cartesian Forces:  Max     0.000144831 RMS     0.000048419

 GradGradGradGradGradGradGradGradGradGradGradGradGradGradGradGradGradGrad
 Berny optimization.
 Using GEDIIS/GDIIS optimizer.
 FormGI is forming the generalized inverse of G from B-inverse, IUseBI=4.
 GSVD:  received Info=                   1 from GESDD.
 Internal  Forces:  Max     0.000130550 RMS     0.000029841
 Search for a local minimum.
 Step number  11 out of a maximum of  101
 All quantities printed in internal units (Hartrees-Bohrs-Radians)
 Mixed Optimization -- En-DIIS/RFO-DIIS
 Swapping is turned off.
 Update second derivatives using D2CorX and points    1    2    3    4    5
                                                      6    7    8    9   10
                                                     11
 DE=  3.97D-06 DEPred=-8.84D-06 R=-4.50D-01
 Trust test=-4.50D-01 RLast= 2.14D-01 DXMaxT set to 2.12D-01
 ITU= -1  1  0  0 -1  0  1  1  1  1  0
     Eigenvalues ---   -0.34775   0.00000   0.01659   0.01710   0.01749
     Eigenvalues ---    0.02032   0.02155   0.02156   0.02157   0.02157
     Eigenvalues ---    0.02158   0.02158   0.02159   0.02168   0.02206
     Eigenvalues ---    0.05475   0.07279   0.07447   0.12715   0.14756
     Eigenvalues ---    0.16000   0.16003   0.16016   0.16097   0.16258
     Eigenvalues ---    0.16771   0.18205   0.21669   0.22212   0.22908
     Eigenvalues ---    0.24695   0.25913   0.26408   0.31238   0.31630
     Eigenvalues ---    0.34407   0.34515   0.34906   0.35160   0.35200
     Eigenvalues ---    0.35259   0.35548   0.40349   0.42067   0.43129
     Eigenvalues ---    0.44107   0.44893   0.46233   0.46952   0.47649
     Eigenvalues ---    0.49402   0.52725   0.54386   0.83732
 Eigenvalue     2 is   3.65D-09 Eigenvector:
                          D40       D38       D37       D35       D39
   1                    0.41918   0.41596   0.41314   0.40992   0.39219
                          D36       D7        D8        D9        D10
   1                    0.38616   0.04305   0.03690   0.03401   0.02786
 Use linear search instead of GDIIS.
 RFO step:  Lambda=-3.47745756D-01 EMin=-3.47745588D-01
 I=     1 Eig=   -3.48D-01 Dot1=  1.29D-04
 I=     1 Stepn=  5.30D-01 RXN=   5.30D-01 EDone=F
 Mixed    1 eigenvectors in step.  Raw Step.Grad=  1.29D-04.
 RFO eigenvector is Hessian eigenvector with negative curvature.
 Taking step of  5.30D-01 in eigenvector direction(s).  Step.Grad=  1.03D-05.
 Skip linear search -- no minimum in search direction.
 Maximum step size (   0.212) exceeded in Quadratic search.
    -- Step size not scaled.
 Iteration  1 RMS(Cart)=  0.21252255 RMS(Int)=  0.01411822
 Iteration  2 RMS(Cart)=  0.02454806 RMS(Int)=  0.00125976
 Iteration  3 RMS(Cart)=  0.00019720 RMS(Int)=  0.00125637
 Iteration  4 RMS(Cart)=  0.00000009 RMS(Int)=  0.00125637
 Variable       Old X    -DE/DX   Delta X   Delta X   Delta X     New X
                                 (Linear)    (Quad)   (Total)
    R1        2.63535  -0.00002   0.00000  -0.05222  -0.05222   2.58313
    R2        1.84480   0.00001   0.00000  -0.00672  -0.00672   1.83808
    R3        2.36220  -0.00013   0.00000  -0.11518  -0.11518   2.24702
    R4        2.68381  -0.00011   0.00000  -0.13611  -0.13611   2.54769
    R5        2.60742  -0.00002   0.00000  -0.02349  -0.02349   2.58393
    R6        1.91004   0.00002   0.00000   0.02948   0.02948   1.93953
    R7        2.65489   0.00005   0.00000   0.08325   0.08307   2.73796
    R8        2.66119   0.00000   0.00000  -0.04605  -0.04640   2.61478
    R9        2.64289  -0.00008   0.00000  -0.11701  -0.11684   2.52606
   R10        2.04055   0.00005   0.00000   0.06529   0.06529   2.10584
   R11        2.63035   0.00001   0.00000   0.06952   0.06934   2.69969
   R12        2.05446   0.00001   0.00000   0.00615   0.00615   2.06061
   R13        2.64150   0.00003   0.00000   0.10310   0.10346   2.74496
   R14        2.05402   0.00001   0.00000   0.01257   0.01257   2.06659
   R15        2.64375   0.00000   0.00000  -0.09007  -0.08988   2.55387
   R16        2.04713   0.00000   0.00000   0.00477   0.00477   2.05189
   R17        2.87171   0.00001   0.00000   0.01585   0.01585   2.88756
   R18        2.07281  -0.00001   0.00000   0.00005   0.00005   2.07285
   R19        2.05985  -0.00003   0.00000  -0.04175  -0.04175   2.01811
   R20        2.07264  -0.00002   0.00000  -0.01574  -0.01574   2.05690
    A1        1.94745  -0.00001   0.00000  -0.08470  -0.08470   1.86275
    A2        2.24732  -0.00006   0.00000  -0.03627  -0.03628   2.21104
    A3        2.00605   0.00002   0.00000   0.04679   0.04677   2.05282
    A4        2.02982   0.00003   0.00000  -0.01053  -0.01054   2.01928
    A5        2.15301  -0.00007   0.00000  -0.18632  -0.18604   1.96697
    A6        2.05056   0.00006   0.00000   0.17192   0.17219   2.22274
    A7        2.07961   0.00001   0.00000   0.01440   0.01385   2.09347
    A8        2.08915  -0.00001   0.00000  -0.03140  -0.03140   2.05775
    A9        2.08452  -0.00003   0.00000  -0.02909  -0.02909   2.05542
   A10        2.10952   0.00004   0.00000   0.06049   0.06048   2.17001
   A11        2.11080  -0.00001   0.00000   0.01371   0.01319   2.12398
   A12        2.09060   0.00002   0.00000   0.02637   0.02663   2.11723
   A13        2.08179  -0.00001   0.00000  -0.04008  -0.03982   2.04197
   A14        2.10630   0.00001   0.00000   0.01707   0.01758   2.12388
   A15        2.07817   0.00001   0.00000   0.04082   0.04056   2.11873
   A16        2.09872  -0.00002   0.00000  -0.05789  -0.05814   2.04058
   A17        2.08820  -0.00002   0.00000  -0.03880  -0.03878   2.04942
   A18        2.11705   0.00000   0.00000  -0.00832  -0.00833   2.10872
   A19        2.07793   0.00002   0.00000   0.04712   0.04711   2.12504
   A20        2.15060  -0.00007   0.00000  -0.15242  -0.15269   1.99791
   A21        2.04027   0.00005   0.00000   0.12740   0.12714   2.16741
   A22        2.09231   0.00002   0.00000   0.02502   0.02555   2.11786
   A23        2.15951  -0.00006   0.00000  -0.07778  -0.07944   2.08008
   A24        2.12892   0.00005   0.00000   0.10029   0.09724   2.22615
   A25        1.99475   0.00000   0.00000  -0.02262  -0.02485   1.96990
   A26        1.94145   0.00001   0.00000   0.03138   0.03130   1.97275
   A27        1.89219   0.00001   0.00000   0.00569   0.00565   1.89784
   A28        1.94387  -0.00001   0.00000  -0.01293  -0.01300   1.93087
   A29        1.89937  -0.00001   0.00000  -0.02706  -0.02711   1.87227
   A30        1.88567   0.00001   0.00000   0.01326   0.01317   1.89883
   A31        1.90052  -0.00001   0.00000  -0.01181  -0.01185   1.88867
    D1        0.00002   0.00000   0.00000  -0.00502  -0.00502  -0.00499
    D2        3.14158   0.00000   0.00000  -0.00465  -0.00465   3.13692
    D3        0.00083   0.00000   0.00000  -0.00204  -0.00198  -0.00115
    D4       -3.14070   0.00000   0.00000  -0.00362  -0.00354   3.13895
    D5       -3.14134   0.00000   0.00000  -0.01170  -0.01178   3.13007
    D6        0.00032   0.00000   0.00000  -0.01328  -0.01334  -0.01302
    D7       -0.00175   0.00002   0.00000   0.06529   0.06083   0.05908
    D8        3.13888  -0.00002   0.00000  -0.06064  -0.05604   3.08284
    D9        3.14043   0.00002   0.00000   0.07505   0.07045  -3.07231
   D10       -0.00213  -0.00001   0.00000  -0.05088  -0.04642  -0.04855
   D11       -3.14153   0.00000   0.00000  -0.00186  -0.00169   3.13996
   D12        0.00010   0.00000   0.00000   0.00147   0.00151   0.00161
   D13       -0.00001   0.00000   0.00000  -0.00025  -0.00026  -0.00026
   D14       -3.14156   0.00000   0.00000   0.00308   0.00294  -3.13862
   D15        3.14149   0.00000   0.00000   0.00235   0.00248  -3.13921
   D16        0.00000   0.00000   0.00000   0.00025   0.00032   0.00032
   D17       -0.00004   0.00000   0.00000   0.00084   0.00083   0.00079
   D18       -3.14153   0.00000   0.00000  -0.00126  -0.00133   3.14033
   D19        0.00003   0.00000   0.00000   0.00012   0.00013   0.00017
   D20       -3.14155   0.00000   0.00000   0.00010   0.00010  -3.14145
   D21        3.14158   0.00000   0.00000  -0.00326  -0.00330   3.13829
   D22        0.00000   0.00000   0.00000  -0.00328  -0.00333  -0.00333
   D23        0.00006   0.00000   0.00000  -0.00129  -0.00126  -0.00120
   D24       -3.14151   0.00000   0.00000  -0.00135  -0.00135   3.14033
   D25        3.14155   0.00000   0.00000   0.00080   0.00082  -3.14082
   D26       -0.00001   0.00000   0.00000   0.00074   0.00072   0.00071
   D27        3.14154   0.00000   0.00000  -0.00020  -0.00025   3.14129
   D28       -0.00001   0.00000   0.00000  -0.00057  -0.00061  -0.00062
   D29       -0.00006   0.00000   0.00000  -0.00018  -0.00022  -0.00028
   D30        3.14157   0.00000   0.00000  -0.00055  -0.00057   3.14100
   D31       -3.14159   0.00000   0.00000   0.00080   0.00074  -3.14085
   D32       -0.00003   0.00000   0.00000   0.00115   0.00112   0.00109
   D33       -0.00002   0.00000   0.00000   0.00086   0.00084   0.00081
   D34        3.14153   0.00000   0.00000   0.00121   0.00122  -3.14044
   D35        2.06591  -0.00003   0.00000  -0.08471  -0.08739   1.97852
   D36       -0.02189  -0.00002   0.00000  -0.07398  -0.07664  -0.09853
   D37       -2.11257  -0.00001   0.00000  -0.05520  -0.05783  -2.17040
   D38       -1.07474   0.00000   0.00000   0.03885   0.04149  -1.03325
   D39        3.12064   0.00001   0.00000   0.04959   0.05224  -3.11030
   D40        1.02997   0.00002   0.00000   0.06837   0.07105   1.10101
         Item               Value     Threshold  Converged?
 Maximum Force            0.000131     0.000450     YES
 RMS     Force            0.000030     0.000300     YES
 Maximum Displacement     0.888285     0.001800     NO 
 RMS     Displacement     0.222677     0.001200     NO 
 Predicted change in Energy=-4.892943D-02
 GradGradGradGradGradGradGradGradGradGradGradGradGradGradGradGradGradGrad

                          Input orientation:                          
 ---------------------------------------------------------------------
 Center     Atomic      Atomic             Coordinates (Angstroms)
 Number     Number       Type             X           Y           Z
 ---------------------------------------------------------------------
      1          8           0        3.755376    0.617707   -0.022954
      2          8           0       -2.196083    1.320168   -0.009257
      3          7           0       -1.538750   -0.785756    0.034984
      4          6           0       -0.206048   -0.582698    0.018637
      5          6           0        0.145384    0.822902    0.018305
      6          6           0        0.789472   -1.543597    0.004792
      7          6           0        1.443105    1.143195    0.004677
      8          6           0        2.173625   -1.190226   -0.009085
      9          6           0        2.479997    0.126039   -0.009659
     10          6           0       -2.511308    0.175247    0.051439
     11          6           0       -3.922508   -0.406918   -0.015422
     12          1           0       -0.685182    1.565705    0.032637
     13          1           0        0.550204   -2.607451    0.005919
     14          1           0       -1.872294   -1.756357    0.025887
     15          1           0        1.772523    2.185993    0.003795
     16          1           0        2.943250   -1.956111   -0.018682
     17          1           0       -4.096524   -1.007976   -0.916339
     18          1           0       -4.625037    0.397272   -0.030174
     19          1           0       -4.126133   -1.020505    0.860248
     20          1           0        3.681530    1.587567   -0.024349
 ---------------------------------------------------------------------
                    Distance matrix (angstroms):
                    1          2          3          4          5
     1  O    0.000000
     2  O    5.992787   0.000000
     3  N    5.477301   2.206572   0.000000
     4  C    4.139515   2.753527   1.348181   0.000000
     5  C    3.616054   2.393846   2.329026   1.448866   0.000000
     6  C    3.669958   4.137014   2.448642   1.383683   2.452620
     7  C    2.371391   3.643515   3.551510   2.387175   1.336732
     8  C    2.402238   5.039486   3.734603   2.456156   2.857830
     9  C    1.366932   4.826144   4.121127   2.778120   2.436559
    10  C    6.282724   1.189073   1.367358   2.426886   2.734696
    11  C    7.745954   2.442009   2.414200   3.720770   4.249863
    12  H    4.540963   1.531295   2.501590   2.201227   1.114362
    13  H    4.547043   4.792547   2.771848   2.161412   3.454178
    14  H    6.108128   3.093716   1.026353   2.038113   3.274699
    15  H    2.528229   4.061976   4.449358   3.403029   2.122689
    16  H    2.698908   6.094820   4.632594   3.435948   3.943645
    17  H    8.068043   3.139224   2.737993   4.023785   4.713752
    18  H    8.383314   2.598460   3.305899   4.526608   4.789616
    19  H    8.098269   3.155929   2.725934   4.033243   4.727883
    20  H    0.972668   5.883711   5.734762   4.452545   3.618129
                    6          7          8          9         10
     6  C    0.000000
     7  C    2.765156   0.000000
     8  C    1.428616   2.445138   0.000000
     9  C    2.376083   1.452569   1.351450   0.000000
    10  C    3.721793   4.071423   4.880243   4.991922   0.000000
    11  C    4.847184   5.585074   6.146255   6.424652   1.528029
    12  H    3.441386   2.170001   3.971105   3.477469   2.295313
    13  H    1.090429   3.855465   2.155052   3.346089   4.137431
    14  H    2.670339   4.404511   4.085485   4.742059   2.034720
    15  H    3.856972   1.093593   3.399986   2.178098   4.732501
    16  H    2.193053   3.443352   1.085815   2.133080   5.856603
    17  H    5.000832   6.013593   6.338067   6.734886   2.202163
    18  H    5.751965   6.113915   6.981575   7.110239   2.126924
    19  H    5.016831   6.035728   6.361721   6.761084   2.166023
    20  H    4.262515   2.282291   3.160718   1.892078   6.352293
                   11         12         13         14         15
    11  C    0.000000
    12  H    3.791283   0.000000
    13  H    4.984771   4.352254   0.000000
    14  H    2.454805   3.527800   2.567734   0.000000
    15  H    6.257549   2.534936   4.946834   5.369106   0.000000
    16  H    7.038369   5.056811   2.480225   4.819891   4.304432
    17  H    1.096906   4.377402   5.000095   2.528846   6.744909
    18  H    1.067936   4.109943   5.984377   3.495547   6.642999
    19  H    1.088463   4.383328   5.011626   2.513448   6.768255
    20  H    7.861261   4.367138   5.234910   6.483001   2.000803
                   16         17         18         19         20
    16  H    0.000000
    17  H    7.159830   0.000000
    18  H    7.925749   1.743369   0.000000
    19  H    7.184987   1.776878   1.746955   0.000000
    20  H    3.619771   8.248067   8.391417   8.279139   0.000000
 Stoichiometry    C8H9NO2
 Framework group  C1[X(C8H9NO2)]
 Deg. of freedom    54
 Full point group                 C1      NOp   1
 Largest Abelian subgroup         C1      NOp   1
 Largest concise Abelian subgroup C1      NOp   1
                         Standard orientation:                         
 ---------------------------------------------------------------------
 Center     Atomic      Atomic             Coordinates (Angstroms)
 Number     Number       Type             X           Y           Z
 ---------------------------------------------------------------------
      1          8           0        3.804094   -0.511344    0.014485
      2          8           0       -2.121440   -1.406627    0.016692
      3          7           0       -1.532947    0.719610   -0.025168
      4          6           0       -0.194314    0.559894   -0.013116
      5          6           0        0.202558   -0.833552   -0.016676
      6          6           0        0.769527    1.552579   -0.000212
      7          6           0        1.510027   -1.111570   -0.007482
      8          6           0        2.164456    1.244306    0.008913
      9          6           0        2.513394   -0.061316    0.005909
     10          6           0       -2.473843   -0.272429   -0.040750
     11          6           0       -3.902991    0.263483    0.031410
     12          1           0       -0.603497   -1.602900   -0.030104
     13          1           0        0.495850    2.608104    0.001529
     14          1           0       -1.897794    1.678850   -0.013119
     15          1           0        1.873122   -2.143124   -0.009687
     16          1           0        2.908840    2.034754    0.017831
     17          1           0       -4.093743    0.856821    0.934054
     18          1           0       -4.578999   -0.563119    0.046567
     19          1           0       -4.129033    0.871837   -0.842410
     20          1           0        3.761773   -1.483091    0.014117
 ---------------------------------------------------------------------
 Rotational constants (GHZ):      3.4635576      0.5964406      0.5105197
 Standard basis: 6-31G (6D, 7F)
 There are   117 symmetry adapted cartesian basis functions of A   symmetry.
 There are   117 symmetry adapted basis functions of A   symmetry.
   117 basis functions,   278 primitive gaussians,   117 cartesian basis functions
    40 alpha electrons       40 beta electrons
       nuclear repulsion energy       582.5354448145 Hartrees.
 NAtoms=   20 NActive=   20 NUniq=   20 SFac= 1.00D+00 NAtFMM=   60 NAOKFM=F Big=F
 Integral buffers will be    262144 words long.
 Raffenetti 2 integral format.
 Two-electron integral symmetry is turned on.
 One-electron integrals computed using PRISM.
 NBasis=   117 RedAO= T EigKep=  5.82D-04  NBF=   117
 NBsUse=   117 1.00D-06 EigRej= -1.00D+00 NBFU=   117
 Initial guess from the checkpoint file:  "E:\Research\Paracetamol Project\paracetamol_opt_freq.chk"
 B after Tr=     0.000000    0.000000    0.000000
         Rot=    0.999999   -0.000625   -0.000123    0.001530 Ang=  -0.19 deg.
 ExpMin= 1.61D-01 ExpMax= 5.48D+03 ExpMxC= 8.25D+02 IAcc=1 IRadAn=         1 AccDes= 0.00D+00
 Harris functional with IExCor=  402 and IRadAn=       1 diagonalized for initial guess.
 HarFok:  IExCor=  402 AccDes= 0.00D+00 IRadAn=         1 IDoV= 1 UseB2=F ITyADJ=14
 ICtDFT=  3500011 ScaDFX=  1.000000  1.000000  1.000000  1.000000
 FoFCou: FMM=F IPFlag=           0 FMFlag=      100000 FMFlg1=           0
         NFxFlg=           0 DoJE=T BraDBF=F KetDBF=T FulRan=T
         wScrn=  0.000000 ICntrl=     500 IOpCl=  0 I1Cent=   200000004 NGrid=           0
         NMat0=    1 NMatS0=      1 NMatT0=    0 NMatD0=    1 NMtDS0=    0 NMtDT0=    0
 Petite list used in FoFCou.
 Keep R1 ints in memory in canonical form, NReq=24825568.
 Requested convergence on RMS density matrix=1.00D-08 within 128 cycles.
 Requested convergence on MAX density matrix=1.00D-06.
 Requested convergence on             energy=1.00D-06.
 No special actions if energy rises.
 Integral accuracy reduced to 1.0D-05 until final iterations.
 Initial convergence to 1.0D-05 achieved.  Increase integral accuracy.
 SCF Done:  E(RB3LYP) =  -515.286587872     A.U. after   15 cycles
            NFock= 15  Conv=0.94D-08     -V/T= 2.0040
 Calling FoFJK, ICntrl=      2127 FMM=F ISym2X=0 I1Cent= 0 IOpClX= 0 NMat=1 NMatS=1 NMatT=0.
 ***** Axes restored to original set *****
 -------------------------------------------------------------------
 Center     Atomic                   Forces (Hartrees/Bohr)
 Number     Number              X              Y              Z
 -------------------------------------------------------------------
      1        8           0.023596068   -0.004935891   -0.000313981
      2        8          -0.045842665    0.107803512    0.001053172
      3        7          -0.048925743   -0.066231967    0.004868261
      4        6           0.043636998    0.050738747   -0.000171077
      5        6          -0.009157792   -0.007781596    0.001480124
      6        6           0.010254237   -0.013713270    0.000028122
      7        6           0.051595857   -0.011593668   -0.000703580
      8        6          -0.020478201   -0.025802248   -0.000024894
      9        6          -0.025798886    0.054124561    0.000289748
     10        6          -0.023634859   -0.094532811   -0.014358527
     11        6           0.006123454    0.001183994    0.002482596
     12        1           0.038447096   -0.014897549   -0.000376812
     13        1          -0.002673748    0.002237237    0.000092865
     14        1           0.004680478    0.010782346    0.001023474
     15        1          -0.002450863   -0.001517776    0.000120917
     16        1          -0.001703660    0.001595557   -0.000010741
     17        1           0.004852929   -0.000329091    0.000540885
     18        1          -0.010986795    0.013445483    0.000740705
     19        1          -0.001076235   -0.004169892    0.003300808
     20        1           0.009542328    0.003594321   -0.000062066
 -------------------------------------------------------------------
 Cartesian Forces:  Max     0.107803512 RMS     0.027560975

 GradGradGradGradGradGradGradGradGradGradGradGradGradGradGradGradGradGrad
 Berny optimization.
 Using GEDIIS/GDIIS optimizer.
 FormGI is forming the generalized inverse of G from B-inverse, IUseBI=4.
 Internal  Forces:  Max     0.150644010 RMS     0.036960400
 Search for a local minimum.
 Step number  12 out of a maximum of  101
 All quantities printed in internal units (Hartrees-Bohrs-Radians)
 Mixed Optimization -- RFO/linear search
 Update second derivatives using D2CorX and points    1    2    3    4    5
                                                      6    7    8    9   11
                                                     12   10
 ITU=  0 -1  1  0  0 -1  0  1  1  1  1  0
 Use linear search instead of GDIIS.
 Energy rises -- skip Quadratic/GDIIS search.
 Quartic linear search produced a step of -0.98748.
 Iteration  1 RMS(Cart)=  0.21069940 RMS(Int)=  0.01284595
 Iteration  2 RMS(Cart)=  0.02537262 RMS(Int)=  0.00021406
 Iteration  3 RMS(Cart)=  0.00045922 RMS(Int)=  0.00001540
 Iteration  4 RMS(Cart)=  0.00000021 RMS(Int)=  0.00001540
 Variable       Old X    -DE/DX   Delta X   Delta X   Delta X     New X
                                 (Linear)    (Quad)   (Total)
    R1        2.58313   0.03044   0.05193   0.00000   0.05193   2.63505
    R2        1.83808   0.00286   0.00670   0.00000   0.00670   1.84477
    R3        2.24702   0.09160   0.11456   0.00000   0.11456   2.36158
    R4        2.54769   0.11831   0.13551   0.00000   0.13551   2.68320
    R5        2.58393   0.06657   0.02303   0.00000   0.02303   2.60696
    R6        1.93953  -0.01173  -0.02938   0.00000  -0.02938   1.91015
    R7        2.73796   0.01699  -0.08320   0.00000  -0.08320   2.65476
    R8        2.61478   0.01113   0.04661   0.00000   0.04661   2.66139
    R9        2.52606   0.04774   0.11667   0.00000   0.11667   2.64273
   R10        2.10584  -0.03859  -0.06495   0.00000  -0.06495   2.04089
   R11        2.69969  -0.01076  -0.06942   0.00000  -0.06941   2.63028
   R12        2.06061  -0.00159  -0.00612   0.00000  -0.00612   2.05449
   R13        2.74496  -0.02839  -0.10334   0.00000  -0.10335   2.64161
   R14        2.06659  -0.00219  -0.01253   0.00000  -0.01253   2.05406
   R15        2.55387   0.02015   0.08990   0.00000   0.08990   2.64377
   R16        2.05189  -0.00233  -0.00475   0.00000  -0.00475   2.04715
   R17        2.88756  -0.00317  -0.01592   0.00000  -0.01592   2.87164
   R18        2.07285  -0.00104   0.00030   0.00000   0.00030   2.07316
   R19        2.01811   0.01734   0.04161   0.00000   0.04161   2.05972
   R20        2.05690   0.00521   0.01525   0.00000   0.01525   2.07215
    A1        1.86275   0.01799   0.08481   0.00000   0.08481   1.94756
    A2        2.21104   0.15061   0.03549   0.00000   0.03549   2.24653
    A3        2.05282  -0.07617  -0.04661   0.00000  -0.04661   2.00621
    A4        2.01928  -0.07443   0.01116   0.00000   0.01116   2.03044
    A5        1.96697   0.15064   0.18556   0.00000   0.18555   2.15253
    A6        2.22274  -0.11278  -0.17192   0.00000  -0.17192   2.05083
    A7        2.09347  -0.03786  -0.01364   0.00000  -0.01363   2.07983
    A8        2.05775   0.01418   0.03134   0.00000   0.03134   2.08909
    A9        2.05542   0.00820   0.02948   0.00000   0.02948   2.08490
   A10        2.17001  -0.02238  -0.06081   0.00000  -0.06081   2.10919
   A11        2.12398   0.02302  -0.01337   0.00000  -0.01336   2.11062
   A12        2.11723  -0.01471  -0.02676   0.00000  -0.02676   2.09047
   A13        2.04197  -0.00831   0.04013   0.00000   0.04013   2.08209
   A14        2.12388   0.00488  -0.01767   0.00000  -0.01768   2.10621
   A15        2.11873  -0.00438  -0.04095   0.00000  -0.04095   2.07778
   A16        2.04058  -0.00050   0.05862   0.00000   0.05862   2.09920
   A17        2.04942   0.01373   0.03871   0.00000   0.03871   2.08813
   A18        2.10872  -0.00694   0.00875   0.00000   0.00875   2.11747
   A19        2.12504  -0.00679  -0.04746   0.00000  -0.04746   2.07759
   A20        1.99791   0.03499   0.15262   0.00000   0.15263   2.15054
   A21        2.16741  -0.01704  -0.12725   0.00000  -0.12724   2.04016
   A22        2.11786  -0.01795  -0.02538   0.00000  -0.02538   2.09248
   A23        2.08008   0.10041   0.07890   0.00000   0.07893   2.15901
   A24        2.22615  -0.06143  -0.09733   0.00000  -0.09730   2.12886
   A25        1.96990  -0.03865   0.02539   0.00000   0.02541   1.99531
   A26        1.97275  -0.00681  -0.03534   0.00000  -0.03534   1.93741
   A27        1.89784   0.00073  -0.00562   0.00000  -0.00562   1.89222
   A28        1.93087   0.00190   0.01748   0.00000   0.01748   1.94835
   A29        1.87227   0.00343   0.02476   0.00000   0.02476   1.89702
   A30        1.89883   0.00079  -0.01327   0.00000  -0.01327   1.88557
   A31        1.88867   0.00025   0.01377   0.00000   0.01377   1.90244
    D1       -0.00499  -0.00002   0.00605   0.00000   0.00605   0.00106
    D2        3.13692   0.00009   0.00566   0.00000   0.00566  -3.14060
    D3       -0.00115   0.00070   0.00645   0.00000   0.00645   0.00530
    D4        3.13895   0.00027   0.00789   0.00000   0.00789  -3.13635
    D5        3.13007   0.00195   0.01427   0.00000   0.01427  -3.13885
    D6       -0.01302   0.00152   0.01570   0.00000   0.01570   0.00268
    D7        0.05908   0.00303  -0.06747   0.00000  -0.06742  -0.00834
    D8        3.08284   0.00062   0.04657   0.00000   0.04652   3.12936
    D9       -3.07231   0.00185  -0.07508   0.00000  -0.07503   3.13585
   D10       -0.04855  -0.00057   0.03896   0.00000   0.03891  -0.00964
   D11        3.13996  -0.00015   0.00168   0.00000   0.00168  -3.14155
   D12        0.00161  -0.00010  -0.00166   0.00000  -0.00166  -0.00005
   D13       -0.00026   0.00034   0.00037   0.00000   0.00037   0.00011
   D14       -3.13862   0.00038  -0.00297   0.00000  -0.00297  -3.14159
   D15       -3.13921  -0.00008  -0.00240   0.00000  -0.00240   3.14157
   D16        0.00032   0.00012  -0.00005   0.00000  -0.00005   0.00027
   D17        0.00079  -0.00040  -0.00087   0.00000  -0.00087  -0.00008
   D18        3.14033  -0.00021   0.00148   0.00000   0.00148  -3.14137
   D19        0.00017  -0.00008  -0.00028   0.00000  -0.00028  -0.00011
   D20       -3.14145  -0.00002  -0.00008   0.00000  -0.00008  -3.14153
   D21        3.13829  -0.00006   0.00330   0.00000   0.00330   3.14158
   D22       -0.00333   0.00000   0.00350   0.00000   0.00350   0.00016
   D23       -0.00120   0.00019   0.00125   0.00000   0.00125   0.00005
   D24        3.14033   0.00015   0.00143   0.00000   0.00143  -3.14143
   D25       -3.14082   0.00002  -0.00101   0.00000  -0.00101   3.14135
   D26        0.00071  -0.00003  -0.00084   0.00000  -0.00084  -0.00013
   D27        3.14129   0.00000   0.00033   0.00000   0.00033  -3.14157
   D28       -0.00062  -0.00010   0.00071   0.00000   0.00071   0.00009
   D29       -0.00028  -0.00005   0.00013   0.00000   0.00013  -0.00015
   D30        3.14100  -0.00015   0.00051   0.00000   0.00051   3.14151
   D31       -3.14085  -0.00006  -0.00074   0.00000  -0.00074  -3.14159
   D32        0.00109   0.00004  -0.00115   0.00000  -0.00115  -0.00006
   D33        0.00081  -0.00002  -0.00092   0.00000  -0.00092  -0.00010
   D34       -3.14044   0.00008  -0.00132   0.00000  -0.00132   3.14143
   D35        1.97852   0.00631  -0.00189   0.00000  -0.00186   1.97666
   D36       -0.09853   0.00576  -0.00735   0.00000  -0.00731  -0.10584
   D37       -2.17040   0.00388  -0.03129   0.00000  -0.03125  -2.20166
   D38       -1.03325  -0.00452  -0.12782   0.00000  -0.12786  -1.16111
   D39       -3.11030  -0.00506  -0.13328   0.00000  -0.13332   3.03957
   D40        1.10101  -0.00694  -0.15722   0.00000  -0.15726   0.94375
         Item               Value     Threshold  Converged?
 Maximum Force            0.150644     0.000450     NO 
 RMS     Force            0.036960     0.000300     NO 
 Maximum Displacement     0.886242     0.001800     NO 
 RMS     Displacement     0.224219     0.001200     NO 
 Predicted change in Energy=-1.096161D-02
 GradGradGradGradGradGradGradGradGradGradGradGradGradGradGradGradGradGrad

                          Input orientation:                          
 ---------------------------------------------------------------------
 Center     Atomic      Atomic             Coordinates (Angstroms)
 Number     Number       Type             X           Y           Z
 ---------------------------------------------------------------------
      1          8           0        3.921820    0.377339   -0.005212
      2          8           0       -2.619247    1.379603   -0.003741
      3          7           0       -1.591882   -0.699433    0.011628
      4          6           0       -0.215462   -0.350823    0.006894
      5          6           0        0.244622    0.976507   -0.002733
      6          6           0        0.721727   -1.402056    0.012306
      7          6           0        1.619322    1.233233   -0.006909
      8          6           0        2.089012   -1.141567    0.008152
      9          6           0        2.541114    0.182357   -0.001469
     10          6           0       -2.692631    0.132078    0.002327
     11          6           0       -4.026668   -0.595580   -0.005427
     12          1           0       -0.469970    1.786277   -0.006910
     13          1           0        0.376616   -2.432992    0.019557
     14          1           0       -1.780139   -1.692508    0.021069
     15          1           0        1.963663    2.264183   -0.014306
     16          1           0        2.815416   -1.945227    0.012122
     17          1           0       -4.170066   -1.143925   -0.944741
     18          1           0       -4.822280    0.142890    0.092899
     19          1           0       -4.100877   -1.312524    0.820931
     20          1           0        4.150509    1.326369   -0.011037
 ---------------------------------------------------------------------
                    Distance matrix (angstroms):
                    1          2          3          4          5
     1  O    0.000000
     2  O    6.617408   0.000000
     3  N    5.617885   2.319074   0.000000
     4  C    4.200890   2.961869   1.419888   0.000000
     5  C    3.725694   2.892098   2.486308   1.404840   0.000000
     6  C    3.661578   4.347412   2.417947   1.408348   2.425988
     7  C    2.456431   4.241097   3.747983   2.424017   1.398473
     8  C    2.380429   5.340800   3.707355   2.436366   2.808582
     9  C    1.394411   5.297426   4.226036   2.807679   2.429928
    10  C    6.619000   1.249696   1.379545   2.523802   3.056230
    11  C    8.007811   2.425322   2.437059   3.819076   4.551416
    12  H    4.612258   2.187415   2.727230   2.152245   1.079993
    13  H    4.524053   4.848878   2.623028   2.164751   3.412126
    14  H    6.066077   3.184743   1.010806   2.061197   3.350204
    15  H    2.719309   4.667511   4.628779   3.404012   2.147870
    16  H    2.572692   6.371053   4.579987   3.424672   3.891752
    17  H    8.287073   3.107848   2.785543   4.144094   4.987292
    18  H    8.747792   2.528271   3.339398   4.633995   5.135908
    19  H    8.240256   3.181645   2.706641   4.084601   4.980105
    20  H    0.976212   6.769969   6.089289   4.677071   3.921533
                    6          7          8          9         10
     6  C    0.000000
     7  C    2.784025   0.000000
     8  C    1.391884   2.420849   0.000000
     9  C    2.412617   1.397881   1.399022   0.000000
    10  C    3.743194   4.450344   4.948365   5.233987   0.000000
    11  C    4.816427   5.934793   6.140019   6.613695   1.519606
    12  H    3.403818   2.161249   3.888558   3.411629   2.770682
    13  H    1.087191   3.871205   2.144810   3.394929   4.000020
    14  H    2.518684   4.485207   3.908201   4.710504   2.040124
    15  H    3.870972   1.086961   3.408130   2.160466   5.121252
    16  H    2.163000   3.396117   1.083304   2.145236   5.886754
    17  H    4.991213   6.328304   6.331198   6.905702   2.169778
    18  H    5.755811   6.533991   7.030147   7.364104   2.131601
    19  H    4.890746   6.315606   6.245363   6.857627   2.177188
    20  H    4.381939   2.532903   3.215718   1.974590   6.946586
                   11         12         13         14         15
    11  C    0.000000
    12  H    4.280578   0.000000
    13  H    4.771332   4.303445   0.000000
    14  H    2.500169   3.717427   2.280331   0.000000
    15  H    6.637951   2.480125   4.958157   5.447266   0.000000
    16  H    6.973949   4.971744   2.487111   4.602508   4.294801
    17  H    1.097067   4.812102   4.823265   2.635429   7.078386
    18  H    1.089956   4.653309   5.802504   3.553655   7.110584
    19  H    1.096532   4.844726   4.684612   2.483946   7.090071
    20  H    8.400008   4.643313   5.326913   6.654865   2.379453
                   16         17         18         19         20
    16  H    0.000000
    17  H    7.096100   0.000000
    18  H    7.918406   1.777068   0.000000
    19  H    6.992109   1.775052   1.780079   0.000000
    20  H    3.533602   8.729612   9.051097   8.702947   0.000000
 Stoichiometry    C8H9NO2
 Framework group  C1[X(C8H9NO2)]
 Deg. of freedom    54
 Full point group                 C1      NOp   1
 Largest Abelian subgroup         C1      NOp   1
 Largest concise Abelian subgroup C1      NOp   1
                         Standard orientation:                         
 ---------------------------------------------------------------------
 Center     Atomic      Atomic             Coordinates (Angstroms)
 Number     Number       Type             X           Y           Z
 ---------------------------------------------------------------------
      1          8           0        3.995562   -0.238042    0.004600
      2          8           0       -2.507905   -1.460716   -0.003917
      3          7           0       -1.551374    0.651901   -0.006685
      4          6           0       -0.163962    0.349974   -0.003816
      5          6           0        0.340709   -0.961087   -0.002055
      6          6           0        0.737173    1.432286   -0.002790
      7          6           0        1.723298   -1.171239    0.000808
      8          6           0        2.112479    1.218123    0.000026
      9          6           0        2.609056   -0.089804    0.001801
     10          6           0       -2.623399   -0.216368   -0.002535
     11          6           0       -3.981260    0.465741    0.009356
     12          1           0       -0.346115   -1.794549   -0.002836
     13          1           0        0.357425    2.450998   -0.003929
     14          1           0       -1.773078    1.638086   -0.010217
     15          1           0        2.102277   -2.189991    0.002093
     16          1           0        2.811315    2.045876    0.000979
     17          1           0       -4.143065    1.003298    0.951911
     18          1           0       -4.751470   -0.298588   -0.093512
     19          1           0       -4.079685    1.184700   -0.812710
     20          1           0        4.256187   -1.178821    0.004785
 ---------------------------------------------------------------------
 Rotational constants (GHZ):      3.5592312      0.5410473      0.4710466
 Standard basis: 6-31G (6D, 7F)
 There are   117 symmetry adapted cartesian basis functions of A   symmetry.
 There are   117 symmetry adapted basis functions of A   symmetry.
   117 basis functions,   278 primitive gaussians,   117 cartesian basis functions
    40 alpha electrons       40 beta electrons
       nuclear repulsion energy       567.9675841026 Hartrees.
 NAtoms=   20 NActive=   20 NUniq=   20 SFac= 1.00D+00 NAtFMM=   60 NAOKFM=F Big=F
 Integral buffers will be    262144 words long.
 Raffenetti 2 integral format.
 Two-electron integral symmetry is turned on.
 One-electron integrals computed using PRISM.
 NBasis=   117 RedAO= T EigKep=  5.94D-04  NBF=   117
 NBsUse=   117 1.00D-06 EigRej= -1.00D+00 NBFU=   117
 Lowest energy guess from the checkpoint file:  "E:\Research\Paracetamol Project\paracetamol_opt_freq.chk"
 B after Tr=     0.000000    0.000000    0.000000
         Rot=    1.000000    0.000013   -0.000002    0.000010 Ang=   0.00 deg.
 B after Tr=     0.000000    0.000000    0.000000
         Rot=    0.999999   -0.000690    0.000188   -0.001537 Ang=  -0.19 deg.
 Keep R1 ints in memory in canonical form, NReq=24825568.
 Requested convergence on RMS density matrix=1.00D-08 within 128 cycles.
 Requested convergence on MAX density matrix=1.00D-06.
 Requested convergence on             energy=1.00D-06.
 No special actions if energy rises.
 Integral accuracy reduced to 1.0D-05 until final iterations.
 Initial convergence to 1.0D-05 achieved.  Increase integral accuracy.
 SCF Done:  E(RB3LYP) =  -515.339400476     A.U. after   10 cycles
            NFock= 10  Conv=0.69D-08     -V/T= 2.0056
 Calling FoFJK, ICntrl=      2127 FMM=F ISym2X=0 I1Cent= 0 IOpClX= 0 NMat=1 NMatS=1 NMatT=0.
 ***** Axes restored to original set *****
 -------------------------------------------------------------------
 Center     Atomic                   Forces (Hartrees/Bohr)
 Number     Number              X              Y              Z
 -------------------------------------------------------------------
      1        8           0.000096863    0.000043218    0.000006913
      2        8          -0.000112796    0.000374870   -0.000269808
      3        7           0.000029619   -0.000223787   -0.000095158
      4        6           0.000051011   -0.000132345   -0.000009537
      5        6           0.000145483    0.000230830   -0.000017871
      6        6          -0.000086442    0.000097291   -0.000000434
      7        6          -0.000037185   -0.000040859    0.000007853
      8        6           0.000043395    0.000031037    0.000002352
      9        6          -0.000053972    0.000003200   -0.000001621
     10        6          -0.000140853   -0.000240461    0.000562361
     11        6           0.000066820   -0.000105350   -0.000163657
     12        1           0.000023841   -0.000138780    0.000007394
     13        1           0.000029797   -0.000009735    0.000003281
     14        1          -0.000017358    0.000056503   -0.000034330
     15        1           0.000068420   -0.000021262   -0.000002984
     16        1          -0.000040189   -0.000019528    0.000004048
     17        1          -0.000015774    0.000060098   -0.000024945
     18        1          -0.000049643    0.000016188    0.000025855
     19        1           0.000008019   -0.000003396    0.000007106
     20        1          -0.000009056    0.000022271   -0.000006819
 -------------------------------------------------------------------
 Cartesian Forces:  Max     0.000562361 RMS     0.000122185

 GradGradGradGradGradGradGradGradGradGradGradGradGradGradGradGradGradGrad
 Berny optimization.
 Using GEDIIS/GDIIS optimizer.
 FormGI is forming the generalized inverse of G from B-inverse, IUseBI=4.
 GSVD:  received Info=                   1 from GESDD.
 Internal  Forces:  Max     0.000372241 RMS     0.000090966
 Search for a local minimum.
 Step number  13 out of a maximum of  101
 All quantities printed in internal units (Hartrees-Bohrs-Radians)
 Mixed Optimization -- En-DIIS/RFO-DIIS
 Update second derivatives using D2CorX and points    1    2    3    4    5
                                                      6    7    8    9   11
                                                     12   10   13
 ITU=  0  0 -1  1  0  0 -1  0  1  1  1  1  0
 Use linear search instead of GDIIS.
     Eigenvalues ---   -0.00071   0.00002   0.01669   0.01711   0.02024
     Eigenvalues ---    0.02086   0.02155   0.02157   0.02157   0.02157
     Eigenvalues ---    0.02157   0.02158   0.02164   0.02178   0.02359
     Eigenvalues ---    0.04081   0.07370   0.07425   0.13708   0.15468
     Eigenvalues ---    0.15989   0.16004   0.16060   0.16183   0.16243
     Eigenvalues ---    0.17542   0.19697   0.21321   0.22124   0.22897
     Eigenvalues ---    0.24395   0.25234   0.26138   0.31172   0.31938
     Eigenvalues ---    0.34403   0.34409   0.34835   0.35128   0.35164
     Eigenvalues ---    0.35215   0.37097   0.37507   0.41823   0.42846
     Eigenvalues ---    0.44497   0.44990   0.45720   0.46733   0.48056
     Eigenvalues ---    0.52507   0.52805   0.55953   0.85828
 RFO step:  Lambda=-7.59708492D-04 EMin=-7.05983846D-04
 I=     1 Eig=   -7.06D-04 Dot1= -9.93D-05
 I=     1 Stepn= -5.30D-01 RXN=   5.30D-01 EDone=F
 Mixed    1 eigenvectors in step.  Raw Step.Grad=  9.93D-05.
 RFO eigenvector is Hessian eigenvector with negative curvature.
 Taking step of  5.30D-01 in eigenvector direction(s).  Step.Grad=  3.69D-05.
 Quartic linear search produced a step of -0.11367.
 Maximum step size (   0.212) exceeded in Quadratic search.
    -- Step size not scaled.
 Iteration  1 RMS(Cart)=  0.11823111 RMS(Int)=  0.00551502
 Iteration  2 RMS(Cart)=  0.01136390 RMS(Int)=  0.00022724
 Iteration  3 RMS(Cart)=  0.00008653 RMS(Int)=  0.00022139
 Iteration  4 RMS(Cart)=  0.00000001 RMS(Int)=  0.00022139
 Variable       Old X    -DE/DX   Delta X   Delta X   Delta X     New X
                                 (Linear)    (Quad)   (Total)
    R1        2.63505   0.00010   0.00007   0.03300   0.03308   2.66813
    R2        1.84477   0.00001   0.00001   0.00246   0.00247   1.84724
    R3        2.36158   0.00037   0.00017   0.01407   0.01423   2.37582
    R4        2.68320   0.00024   0.00020  -0.01119  -0.01099   2.67220
    R5        2.60696   0.00027   0.00003  -0.02323  -0.02320   2.58376
    R6        1.91015  -0.00005  -0.00004   0.00721   0.00717   1.91731
    R7        2.65476   0.00016  -0.00012   0.08853   0.08832   2.74308
    R8        2.66139  -0.00007   0.00007  -0.01507  -0.01518   2.64621
    R9        2.64273   0.00004   0.00017  -0.06435  -0.06410   2.57863
   R10        2.04089  -0.00012  -0.00009   0.01471   0.01462   2.05551
   R11        2.63028   0.00003  -0.00010   0.01091   0.01073   2.64101
   R12        2.05449   0.00000  -0.00001   0.00949   0.00948   2.06398
   R13        2.64161  -0.00005  -0.00015   0.03556   0.03559   2.67720
   R14        2.05406   0.00000  -0.00002   0.01086   0.01085   2.06490
   R15        2.64377  -0.00001   0.00013  -0.02983  -0.02961   2.61416
   R16        2.04715  -0.00001  -0.00001  -0.00621  -0.00622   2.04093
   R17        2.87164   0.00000  -0.00002  -0.01197  -0.01199   2.85965
   R18        2.07316  -0.00001   0.00000  -0.00308  -0.00308   2.07008
   R19        2.05972   0.00005   0.00006  -0.01966  -0.01960   2.04011
   R20        2.07215   0.00000   0.00002  -0.00173  -0.00171   2.07043
    A1        1.94756  -0.00002   0.00012  -0.08644  -0.08632   1.86124
    A2        2.24653   0.00029   0.00005   0.10904   0.10901   2.35554
    A3        2.00621  -0.00012  -0.00007  -0.05769  -0.05784   1.94837
    A4        2.03044  -0.00018   0.00002  -0.05130  -0.05136   1.97908
    A5        2.15253   0.00023   0.00027   0.03309   0.03348   2.18601
    A6        2.05083  -0.00012  -0.00025  -0.03314  -0.03326   2.01757
    A7        2.07983  -0.00011  -0.00002   0.00004  -0.00025   2.07959
    A8        2.08909   0.00002   0.00005  -0.02706  -0.02701   2.06208
    A9        2.08490  -0.00008   0.00004  -0.12937  -0.12933   1.95557
   A10        2.10919   0.00006  -0.00009   0.15643   0.15634   2.26553
   A11        2.11062   0.00007  -0.00002   0.02184   0.02155   2.13218
   A12        2.09047  -0.00001  -0.00004   0.00897   0.00903   2.09950
   A13        2.08209  -0.00007   0.00006  -0.03081  -0.03065   2.05145
   A14        2.10621   0.00003  -0.00002   0.00781   0.00804   2.11425
   A15        2.07778   0.00006  -0.00006   0.05164   0.05145   2.12923
   A16        2.09920  -0.00009   0.00008  -0.05945  -0.05949   2.03971
   A17        2.08813   0.00002   0.00006  -0.03692  -0.03685   2.05128
   A18        2.11747  -0.00006   0.00001   0.01031   0.01030   2.12777
   A19        2.07759   0.00004  -0.00007   0.02661   0.02653   2.10411
   A20        2.15054  -0.00004   0.00022  -0.06808  -0.06800   2.08254
   A21        2.04016   0.00008  -0.00018   0.03379   0.03345   2.07362
   A22        2.09248  -0.00004  -0.00004   0.03429   0.03450   2.12698
   A23        2.15901   0.00022   0.00011   0.01417   0.01421   2.17322
   A24        2.12886  -0.00009  -0.00014   0.00278   0.00258   2.13143
   A25        1.99531  -0.00013   0.00003  -0.01702  -0.01705   1.97826
   A26        1.93741  -0.00002  -0.00005   0.03514   0.03456   1.97198
   A27        1.89222   0.00002  -0.00001  -0.02505  -0.02499   1.86723
   A28        1.94835   0.00000   0.00003   0.01588   0.01523   1.96358
   A29        1.89702  -0.00002   0.00004  -0.01339  -0.01314   1.88389
   A30        1.88557   0.00004  -0.00002   0.01884   0.01775   1.90332
   A31        1.90244  -0.00001   0.00002  -0.03331  -0.03340   1.86904
    D1        0.00106  -0.00001   0.00001  -0.03609  -0.03597  -0.03492
    D2       -3.14060  -0.00001   0.00001  -0.02591  -0.02601   3.11658
    D3        0.00530   0.00000   0.00001  -0.10203  -0.10204  -0.09674
    D4       -3.13635   0.00000   0.00001  -0.10922  -0.10918   3.03766
    D5       -3.13885  -0.00001   0.00002  -0.07656  -0.07657   3.06776
    D6        0.00268  -0.00002   0.00002  -0.08375  -0.08371  -0.08103
    D7       -0.00834   0.00009  -0.00010   0.06461   0.06456   0.05622
    D8        3.12936  -0.00009   0.00007   0.04418   0.04421  -3.10961
    D9        3.13585   0.00010  -0.00011   0.03884   0.03877  -3.10857
   D10       -0.00964  -0.00007   0.00006   0.01841   0.01842   0.00878
   D11       -3.14155   0.00000   0.00000  -0.00461  -0.00465   3.13699
   D12       -0.00005   0.00000   0.00000  -0.00154  -0.00195  -0.00200
   D13        0.00011   0.00000   0.00000   0.00270   0.00272   0.00283
   D14       -3.14159   0.00000   0.00000   0.00577   0.00543  -3.13616
   D15        3.14157   0.00000   0.00000   0.00433   0.00416  -3.13746
   D16        0.00027   0.00000   0.00000  -0.00782  -0.00810  -0.00783
   D17       -0.00008   0.00000   0.00000  -0.00255  -0.00252  -0.00260
   D18       -3.14137   0.00000   0.00000  -0.01470  -0.01478   3.12703
   D19       -0.00011   0.00000   0.00000   0.00131   0.00117   0.00106
   D20       -3.14153   0.00000   0.00000  -0.00134  -0.00152   3.14014
   D21        3.14158   0.00000   0.00000  -0.00179  -0.00208   3.13951
   D22        0.00016   0.00000   0.00000  -0.00444  -0.00476  -0.00460
   D23        0.00005   0.00000   0.00000  -0.00164  -0.00165  -0.00160
   D24       -3.14143   0.00000   0.00000  -0.00862  -0.00864   3.13312
   D25        3.14135   0.00000   0.00000   0.01047   0.01030  -3.13154
   D26       -0.00013   0.00000   0.00000   0.00349   0.00330   0.00317
   D27       -3.14157   0.00000   0.00000   0.00494   0.00471  -3.13685
   D28        0.00009   0.00000   0.00000  -0.00552  -0.00557  -0.00548
   D29       -0.00015   0.00000   0.00000   0.00763   0.00728   0.00713
   D30        3.14151   0.00000   0.00000  -0.00283  -0.00300   3.13850
   D31       -3.14159   0.00000   0.00000  -0.00416  -0.00454   3.13705
   D32       -0.00006   0.00000   0.00000   0.00565   0.00568   0.00563
   D33       -0.00010   0.00000   0.00000   0.00266   0.00235   0.00225
   D34        3.14143   0.00000   0.00000   0.01248   0.01257  -3.12918
   D35        1.97666  -0.00013  -0.00001   0.10953   0.10907   2.08573
   D36       -0.10584  -0.00011  -0.00001   0.12068   0.12083   0.01498
   D37       -2.20166  -0.00010  -0.00005   0.16850   0.16884  -2.03281
   D38       -1.16111   0.00004  -0.00018   0.12954   0.12883  -1.03228
   D39        3.03957   0.00006  -0.00019   0.14068   0.14059  -3.10302
   D40        0.94375   0.00007  -0.00022   0.18851   0.18861   1.13236
         Item               Value     Threshold  Converged?
 Maximum Force            0.000372     0.000450     YES
 RMS     Force            0.000091     0.000300     YES
 Maximum Displacement     0.389134     0.001800     NO 
 RMS     Displacement     0.119647     0.001200     NO 
 Predicted change in Energy=-1.975321D-04
 GradGradGradGradGradGradGradGradGradGradGradGradGradGradGradGradGradGrad

                          Input orientation:                          
 ---------------------------------------------------------------------
 Center     Atomic      Atomic             Coordinates (Angstroms)
 Number     Number       Type             X           Y           Z
 ---------------------------------------------------------------------
      1          8           0        3.944445    0.311037    0.033478
      2          8           0       -2.808979    1.414237    0.086580
      3          7           0       -1.590614   -0.559835   -0.042856
      4          6           0       -0.213437   -0.239202   -0.029820
      5          6           0        0.333757    1.105287   -0.032092
      6          6           0        0.661940   -1.331887   -0.004505
      7          6           0        1.690680    1.248079   -0.012647
      8          6           0        2.050256   -1.172667    0.015683
      9          6           0        2.545911    0.118819    0.007910
     10          6           0       -2.750863    0.159473    0.033550
     11          6           0       -3.993767   -0.703560    0.015717
     12          1           0       -0.446069    1.863441   -0.047245
     13          1           0        0.270272   -2.351330    0.011362
     14          1           0       -1.740952   -1.561122   -0.107939
     15          1           0        2.169584    2.230241   -0.014456
     16          1           0        2.721557   -2.018267    0.042950
     17          1           0       -4.074645   -1.318495   -0.887224
     18          1           0       -4.841725   -0.035833    0.040323
     19          1           0       -4.067763   -1.350520    0.896832
     20          1           0        4.095010    1.276303   -0.000200
 ---------------------------------------------------------------------
                    Distance matrix (angstroms):
                    1          2          3          4          5
     1  O    0.000000
     2  O    6.843143   0.000000
     3  N    5.603671   2.323387   0.000000
     4  C    4.194610   3.079651   1.414070   0.000000
     5  C    3.697594   3.160115   2.544790   1.451578   0.000000
     6  C    3.670896   4.426824   2.381499   1.400316   2.459325
     7  C    2.441236   4.503819   3.746513   2.416187   1.364554
     8  C    2.406168   5.505385   3.692550   2.449027   2.852669
     9  C    1.411914   5.509913   4.192134   2.782732   2.422466
    10  C    6.697024   1.257229   1.367267   2.569337   3.227036
    11  C    8.002808   2.427718   2.408159   3.809016   4.690595
    12  H    4.657584   2.408949   2.679977   2.115545   1.087730
    13  H    4.537426   4.864868   2.583659   2.167199   3.457473
    14  H    5.987380   3.167220   1.014599   2.021602   3.379335
    15  H    2.614531   5.046004   4.682352   3.431789   2.153158
    16  H    2.630818   6.509287   4.552934   3.432864   3.932405
    17  H    8.234614   3.165127   2.731104   4.099871   5.102938
    18  H    8.793017   2.497378   3.294118   4.633285   5.300284
    19  H    8.228101   3.144031   2.764862   4.116982   5.125161
    20  H    0.977519   6.905912   5.974910   4.567313   3.765274
                    6          7          8          9         10
     6  C    0.000000
     7  C    2.777516   0.000000
     8  C    1.397562   2.447470   0.000000
     9  C    2.377823   1.416711   1.383354   0.000000
    10  C    3.724625   4.573238   4.982536   5.296992   0.000000
    11  C    4.697959   6.010211   6.062201   6.591188   1.513259
    12  H    3.382253   2.223862   3.931100   3.463913   2.867423
    13  H    1.092209   3.869610   2.134855   3.358597   3.928344
    14  H    2.416017   4.435853   3.813061   4.605737   2.000097
    15  H    3.868054   1.092700   3.405132   2.144814   5.338650
    16  H    2.171495   3.425612   1.080013   2.144578   5.889823
    17  H    4.818155   6.371119   6.192812   6.833659   2.187375
    18  H    5.654387   6.657593   6.985155   7.389325   2.099974
    19  H    4.814857   6.382753   6.183706   6.832995   2.181641
    20  H    4.311455   2.404528   3.190411   1.933791   6.936457
                   11         12         13         14         15
    11  C    0.000000
    12  H    4.379455   0.000000
    13  H    4.571345   4.275614   0.000000
    14  H    2.413686   3.661699   2.164182   0.000000
    15  H    6.826053   2.641450   4.959722   5.447519   0.000000
    16  H    6.842863   5.010953   2.474009   4.488400   4.284599
    17  H    1.095440   4.898658   4.555493   2.472302   7.235029
    18  H    1.079582   4.789228   5.612030   3.458798   7.368618
    19  H    1.095626   4.933305   4.539188   2.543220   7.249607
    20  H    8.327571   4.579120   5.271477   6.490073   2.148829
                   16         17         18         19         20
    16  H    0.000000
    17  H    6.895162   0.000000
    18  H    7.818777   1.758970   0.000000
    19  H    6.875308   1.784357   1.749579   0.000000
    20  H    3.569654   8.617601   9.032639   8.621818   0.000000
 Stoichiometry    C8H9NO2
 Framework group  C1[X(C8H9NO2)]
 Deg. of freedom    54
 Full point group                 C1      NOp   1
 Largest Abelian subgroup         C1      NOp   1
 Largest concise Abelian subgroup C1      NOp   1
                         Standard orientation:                         
 ---------------------------------------------------------------------
 Center     Atomic      Atomic             Coordinates (Angstroms)
 Number     Number       Type             X           Y           Z
 ---------------------------------------------------------------------
      1          8           0        4.026361   -0.172100   -0.033176
      2          8           0       -2.691996   -1.472700   -0.060097
      3          7           0       -1.531637    0.537283    0.047891
      4          6           0       -0.145699    0.256936    0.034656
      5          6           0        0.440595   -1.070901    0.048312
      6          6           0        0.697286    1.374453   -0.002996
      7          6           0        1.801071   -1.174145    0.027041
      8          6           0        2.089620    1.255700   -0.024929
      9          6           0        2.622857   -0.020612   -0.006150
     10          6           0       -2.670502   -0.216326   -0.019024
     11          6           0       -3.938081    0.610135   -0.006416
     12          1           0       -0.316686   -1.851350    0.072429
     13          1           0        0.275932    2.381815   -0.027550
     14          1           0       -1.711066    1.534319    0.103891
     15          1           0        2.308504   -2.141826    0.036982
     16          1           0        2.735839    2.120266   -0.061730
     17          1           0       -4.035051    1.230978    0.890880
     18          1           0       -4.766191   -0.082298   -0.022749
     19          1           0       -4.032787    1.246271   -0.893410
     20          1           0        4.205167   -1.132190    0.009241
 ---------------------------------------------------------------------
 Rotational constants (GHZ):      3.5224644      0.5300326      0.4622240
 Standard basis: 6-31G (6D, 7F)
 There are   117 symmetry adapted cartesian basis functions of A   symmetry.
 There are   117 symmetry adapted basis functions of A   symmetry.
   117 basis functions,   278 primitive gaussians,   117 cartesian basis functions
    40 alpha electrons       40 beta electrons
       nuclear repulsion energy       565.2301943224 Hartrees.
 NAtoms=   20 NActive=   20 NUniq=   20 SFac= 1.00D+00 NAtFMM=   60 NAOKFM=F Big=F
 Integral buffers will be    262144 words long.
 Raffenetti 2 integral format.
 Two-electron integral symmetry is turned on.
 One-electron integrals computed using PRISM.
 NBasis=   117 RedAO= T EigKep=  6.09D-04  NBF=   117
 NBsUse=   117 1.00D-06 EigRej= -1.00D+00 NBFU=   117
 Initial guess from the checkpoint file:  "E:\Research\Paracetamol Project\paracetamol_opt_freq.chk"
 B after Tr=     0.000000    0.000000    0.000000
         Rot=    0.999999    0.001084   -0.000282    0.000406 Ang=   0.14 deg.
 ExpMin= 1.61D-01 ExpMax= 5.48D+03 ExpMxC= 8.25D+02 IAcc=1 IRadAn=         1 AccDes= 0.00D+00
 Harris functional with IExCor=  402 and IRadAn=       1 diagonalized for initial guess.
 HarFok:  IExCor=  402 AccDes= 0.00D+00 IRadAn=         1 IDoV= 1 UseB2=F ITyADJ=14
 ICtDFT=  3500011 ScaDFX=  1.000000  1.000000  1.000000  1.000000
 FoFCou: FMM=F IPFlag=           0 FMFlag=      100000 FMFlg1=           0
         NFxFlg=           0 DoJE=T BraDBF=F KetDBF=T FulRan=T
         wScrn=  0.000000 ICntrl=     500 IOpCl=  0 I1Cent=   200000004 NGrid=           0
         NMat0=    1 NMatS0=      1 NMatT0=    0 NMatD0=    1 NMtDS0=    0 NMtDT0=    0
 Petite list used in FoFCou.
 Keep R1 ints in memory in canonical form, NReq=24825568.
 Requested convergence on RMS density matrix=1.00D-08 within 128 cycles.
 Requested convergence on MAX density matrix=1.00D-06.
 Requested convergence on             energy=1.00D-06.
 No special actions if energy rises.
 Integral accuracy reduced to 1.0D-05 until final iterations.
 Initial convergence to 1.0D-05 achieved.  Increase integral accuracy.
 SCF Done:  E(RB3LYP) =  -515.329412280     A.U. after   15 cycles
            NFock= 15  Conv=0.29D-08     -V/T= 2.0057
 Calling FoFJK, ICntrl=      2127 FMM=F ISym2X=0 I1Cent= 0 IOpClX= 0 NMat=1 NMatS=1 NMatT=0.
 ***** Axes restored to original set *****
 -------------------------------------------------------------------
 Center     Atomic                   Forces (Hartrees/Bohr)
 Number     Number              X              Y              Z
 -------------------------------------------------------------------
      1        8          -0.013137900    0.000199856   -0.000856060
      2        8           0.004791243   -0.007614041    0.000991288
      3        7           0.002708112   -0.016389274   -0.001076746
      4        6           0.014625878    0.019822493    0.001387967
      5        6          -0.049910518   -0.036805975   -0.000665848
      6        6           0.001503776   -0.008422608    0.000450029
      7        6           0.025903235    0.001192010   -0.000089266
      8        6          -0.006169600    0.004090545   -0.000277094
      9        6           0.011336453    0.013358200    0.000864390
     10        6           0.000732419    0.017052324   -0.002936211
     11        6          -0.004848340    0.000727763    0.002021598
     12        1           0.011656434    0.008283243    0.000415120
     13        1          -0.001239346    0.003347316   -0.000330838
     14        1           0.000211168    0.001704668    0.000719011
     15        1          -0.005733013   -0.000562963    0.000056332
     16        1           0.001158533   -0.001057163   -0.000245765
     17        1           0.002635475   -0.001013538    0.000012555
     18        1          -0.007181930    0.004657274   -0.000650982
     19        1           0.002915228   -0.001852691   -0.000181478
     20        1           0.008042692   -0.000717440    0.000391999
 -------------------------------------------------------------------
 Cartesian Forces:  Max     0.049910518 RMS     0.010676660

 GradGradGradGradGradGradGradGradGradGradGradGradGradGradGradGradGradGrad
 Berny optimization.
 Using GEDIIS/GDIIS optimizer.
 FormGI is forming the generalized inverse of G from B-inverse, IUseBI=4.
 GSVD:  received Info=                   1 from GESDD.
 Internal  Forces:  Max     0.028775754 RMS     0.007029231
 Search for a local minimum.
 Step number  14 out of a maximum of  101
 All quantities printed in internal units (Hartrees-Bohrs-Radians)
 Mixed Optimization -- RFO/linear search
 Update second derivatives using D2CorX and points    1    2    3    4    5
                                                      6    7    8    9   11
                                                     12   10   14   13
 ITU=  0  0  0 -1  1  0  0 -1  0  1  1  1  1  0
 Use linear search instead of GDIIS.
 Energy rises -- skip Quadratic/GDIIS search.
 Quartic linear search produced a step of -0.99529.
 Iteration  1 RMS(Cart)=  0.11890815 RMS(Int)=  0.00549809
 Iteration  2 RMS(Cart)=  0.01124129 RMS(Int)=  0.00004313
 Iteration  3 RMS(Cart)=  0.00007565 RMS(Int)=  0.00000104
 Iteration  4 RMS(Cart)=  0.00000000 RMS(Int)=  0.00000104
 Variable       Old X    -DE/DX   Delta X   Delta X   Delta X     New X
                                 (Linear)    (Quad)   (Total)
    R1        2.66813  -0.00513  -0.03292   0.00000  -0.03292   2.63521
    R2        1.84724   0.00052  -0.00246   0.00000  -0.00246   1.84478
    R3        2.37582  -0.00778  -0.01417   0.00000  -0.01417   2.36165
    R4        2.67220  -0.00128   0.01094   0.00000   0.01094   2.68315
    R5        2.58376   0.00705   0.02309   0.00000   0.02309   2.60685
    R6        1.91731  -0.00176  -0.00714   0.00000  -0.00714   1.91018
    R7        2.74308  -0.02509  -0.08791   0.00000  -0.08791   2.65518
    R8        2.64621   0.00000   0.01511   0.00000   0.01511   2.66132
    R9        2.57863   0.01983   0.06380   0.00000   0.06380   2.64243
   R10        2.05551  -0.00259  -0.01455   0.00000  -0.01455   2.04096
   R11        2.64101   0.00324  -0.01068   0.00000  -0.01068   2.63033
   R12        2.06398  -0.00269  -0.00944   0.00000  -0.00944   2.05454
   R13        2.67720  -0.00762  -0.03542   0.00000  -0.03542   2.64178
   R14        2.06490  -0.00302  -0.01080   0.00000  -0.01080   2.05411
   R15        2.61416   0.00659   0.02947   0.00000   0.02947   2.64363
   R16        2.04093   0.00154   0.00619   0.00000   0.00619   2.04712
   R17        2.85965   0.00388   0.01194   0.00000   0.01194   2.87158
   R18        2.07008   0.00037   0.00306   0.00000   0.00306   2.07314
   R19        2.04011   0.00850   0.01951   0.00000   0.01951   2.05963
   R20        2.07043   0.00075   0.00170   0.00000   0.00170   2.07214
    A1        1.86124   0.01490   0.08591   0.00000   0.08591   1.94715
    A2        2.35554  -0.02878  -0.10850   0.00000  -0.10850   2.24705
    A3        1.94837   0.01444   0.05757   0.00000   0.05757   2.00594
    A4        1.97908   0.01433   0.05112   0.00000   0.05112   2.03020
    A5        2.18601  -0.01885  -0.03333   0.00000  -0.03333   2.15268
    A6        2.01757   0.01608   0.03310   0.00000   0.03310   2.05067
    A7        2.07959   0.00278   0.00024   0.00000   0.00025   2.07983
    A8        2.06208   0.00463   0.02688   0.00000   0.02688   2.08896
    A9        1.95557   0.01214   0.12872   0.00000   0.12872   2.08429
   A10        2.26553  -0.01677  -0.15560   0.00000  -0.15560   2.10993
   A11        2.13218  -0.00438  -0.02145   0.00000  -0.02145   2.11073
   A12        2.09950  -0.00024  -0.00899   0.00000  -0.00899   2.09051
   A13        2.05145   0.00463   0.03050   0.00000   0.03050   2.08195
   A14        2.11425  -0.00158  -0.00800   0.00000  -0.00800   2.10624
   A15        2.12923  -0.00428  -0.05121   0.00000  -0.05121   2.07802
   A16        2.03971   0.00586   0.05921   0.00000   0.05921   2.09892
   A17        2.05128   0.00634   0.03668   0.00000   0.03668   2.08796
   A18        2.12777  -0.00291  -0.01025   0.00000  -0.01025   2.11752
   A19        2.10411  -0.00343  -0.02640   0.00000  -0.02640   2.07771
   A20        2.08254   0.01108   0.06768   0.00000   0.06768   2.15022
   A21        2.07362  -0.00330  -0.03330   0.00000  -0.03330   2.04032
   A22        2.12698  -0.00778  -0.03434   0.00000  -0.03434   2.09264
   A23        2.17322  -0.00959  -0.01415   0.00000  -0.01415   2.15908
   A24        2.13143   0.00085  -0.00257   0.00000  -0.00257   2.12887
   A25        1.97826   0.00877   0.01697   0.00000   0.01697   1.99523
   A26        1.97198  -0.00319  -0.03440   0.00000  -0.03440   1.93758
   A27        1.86723   0.00305   0.02487   0.00000   0.02487   1.89210
   A28        1.96358  -0.00256  -0.01515   0.00000  -0.01515   1.94843
   A29        1.88389   0.00094   0.01308   0.00000   0.01307   1.89696
   A30        1.90332   0.00044  -0.01767   0.00000  -0.01766   1.88565
   A31        1.86904   0.00178   0.03324   0.00000   0.03324   1.90229
    D1       -0.03492   0.00021   0.03580   0.00000   0.03580   0.00089
    D2        3.11658   0.00009   0.02589   0.00000   0.02589  -3.14072
    D3       -0.09674   0.00053   0.10156   0.00000   0.10156   0.00482
    D4        3.03766   0.00079   0.10867   0.00000   0.10867  -3.13686
    D5        3.06776   0.00034   0.07621   0.00000   0.07621  -3.13921
    D6       -0.08103   0.00059   0.08332   0.00000   0.08332   0.00229
    D7        0.05622  -0.00090  -0.06425   0.00000  -0.06425  -0.00803
    D8       -3.10961   0.00015  -0.04400   0.00000  -0.04400   3.12957
    D9       -3.10857  -0.00072  -0.03859   0.00000  -0.03859   3.13603
   D10        0.00878   0.00033  -0.01833   0.00000  -0.01833  -0.00955
   D11        3.13699   0.00027   0.00463   0.00000   0.00463  -3.14157
   D12       -0.00200   0.00042   0.00194   0.00000   0.00194  -0.00006
   D13        0.00283  -0.00003  -0.00271   0.00000  -0.00271   0.00012
   D14       -3.13616   0.00012  -0.00540   0.00000  -0.00540  -3.14156
   D15       -3.13746  -0.00025  -0.00414   0.00000  -0.00414   3.14159
   D16       -0.00783   0.00008   0.00806   0.00000   0.00806   0.00024
   D17       -0.00260  -0.00011   0.00251   0.00000   0.00251  -0.00009
   D18        3.12703   0.00022   0.01471   0.00000   0.01471  -3.14144
   D19        0.00106   0.00010  -0.00116   0.00000  -0.00116  -0.00011
   D20        3.14014   0.00012   0.00151   0.00000   0.00151  -3.14154
   D21        3.13951  -0.00002   0.00207   0.00000   0.00207   3.14158
   D22       -0.00460   0.00000   0.00474   0.00000   0.00474   0.00014
   D23       -0.00160   0.00019   0.00164   0.00000   0.00164   0.00005
   D24        3.13312   0.00027   0.00860   0.00000   0.00860  -3.14147
   D25       -3.13154  -0.00010  -0.01025   0.00000  -0.01025   3.14140
   D26        0.00317  -0.00002  -0.00329   0.00000  -0.00329  -0.00012
   D27       -3.13685  -0.00012  -0.00469   0.00000  -0.00469  -3.14155
   D28       -0.00548   0.00004   0.00554   0.00000   0.00554   0.00006
   D29        0.00713  -0.00013  -0.00724   0.00000  -0.00724  -0.00011
   D30        3.13850   0.00003   0.00299   0.00000   0.00299   3.14149
   D31        3.13705   0.00007   0.00452   0.00000   0.00452   3.14158
   D32        0.00563  -0.00017  -0.00566   0.00000  -0.00566  -0.00003
   D33        0.00225  -0.00001  -0.00234   0.00000  -0.00234  -0.00009
   D34       -3.12918  -0.00025  -0.01252   0.00000  -0.01252   3.14149
   D35        2.08573   0.00219  -0.10855   0.00000  -0.10855   1.97718
   D36        0.01498   0.00089  -0.12026   0.00000  -0.12026  -0.10527
   D37       -2.03281  -0.00176  -0.16805   0.00000  -0.16805  -2.20086
   D38       -1.03228   0.00133  -0.12823   0.00000  -0.12823  -1.16050
   D39       -3.10302   0.00003  -0.13993   0.00000  -0.13993   3.04023
   D40        1.13236  -0.00262  -0.18772   0.00000  -0.18772   0.94464
         Item               Value     Threshold  Converged?
 Maximum Force            0.028776     0.000450     NO 
 RMS     Force            0.007029     0.000300     NO 
 Maximum Displacement     0.387258     0.001800     NO 
 RMS     Displacement     0.119083     0.001200     NO 
 Predicted change in Energy=-2.266889D-04
 GradGradGradGradGradGradGradGradGradGradGradGradGradGradGradGradGradGrad

                          Input orientation:                          
 ---------------------------------------------------------------------
 Center     Atomic      Atomic             Coordinates (Angstroms)
 Number     Number       Type             X           Y           Z
 ---------------------------------------------------------------------
      1          8           0        3.921964    0.377030   -0.004984
      2          8           0       -2.620153    1.379817   -0.003356
      3          7           0       -1.591868   -0.698793    0.011307
      4          6           0       -0.215445   -0.350309    0.006686
      5          6           0        0.245036    0.977118   -0.002900
      6          6           0        0.721464   -1.401742    0.012212
      7          6           0        1.619674    1.233305   -0.006936
      8          6           0        2.088866   -1.141721    0.008198
      9          6           0        2.541173    0.182055   -0.001405
     10          6           0       -2.692925    0.132219    0.002445
     11          6           0       -4.026570   -0.596096   -0.005303
     12          1           0       -0.469876    1.786653   -0.007135
     13          1           0        0.376137   -2.432630    0.019497
     14          1           0       -1.779945   -1.691924    0.020400
     15          1           0        1.964656    2.264070   -0.014308
     16          1           0        2.815020   -1.945584    0.012295
     17          1           0       -4.169739   -1.144784   -0.944443
     18          1           0       -4.822443    0.142064    0.092700
     19          1           0       -4.100707   -1.312702    0.821348
     20          1           0        4.150282    1.326154   -0.010919
 ---------------------------------------------------------------------
                    Distance matrix (angstroms):
                    1          2          3          4          5
     1  O    0.000000
     2  O    6.618525   0.000000
     3  N    5.617829   2.319095   0.000000
     4  C    4.200870   2.962441   1.419861   0.000000
     5  C    3.725575   2.893349   2.486583   1.405060   0.000000
     6  C    3.661629   4.347839   2.417776   1.408311   2.426146
     7  C    2.456369   4.242359   3.747978   2.423980   1.398313
     8  C    2.380551   5.341642   3.707290   2.436428   2.808791
     9  C    1.394493   5.298482   4.225882   2.807564   2.429891
    10  C    6.619421   1.249732   1.379487   2.524036   3.057040
    11  C    8.007881   2.425334   2.436923   3.819062   4.552101
    12  H    4.612515   2.188428   2.727022   2.152099   1.080030
    13  H    4.524122   4.849023   2.622842   2.164763   3.412341
    14  H    6.065722   3.184667   1.010823   2.061015   3.350354
    15  H    2.718834   4.669314   4.629047   3.404152   2.147899
    16  H    2.572967   6.371785   4.579864   3.424712   3.891945
    17  H    8.286986   3.108129   2.785279   4.143945   4.987905
    18  H    8.748108   2.528110   3.339203   4.634033   5.136710
    19  H    8.240222   3.181483   2.706902   4.084744   4.980777
    20  H    0.976218   6.770651   6.088776   4.676581   3.920821
                    6          7          8          9         10
     6  C    0.000000
     7  C    2.783994   0.000000
     8  C    1.391911   2.420975   0.000000
     9  C    2.412455   1.397969   1.398948   0.000000
    10  C    3.743151   4.450953   4.948583   5.234336   0.000000
    11  C    4.815931   5.935215   6.139743   6.613681   1.519576
    12  H    3.403752   2.161577   3.888800   3.411917   2.771135
    13  H    1.087214   3.871197   2.144765   3.394760   3.999735
    14  H    2.518197   4.484989   3.907758   4.710025   2.039939
    15  H    3.870969   1.086988   3.408129   2.160398   5.122317
    16  H    2.163041   3.396257   1.083288   2.145234   5.886835
    17  H    4.990498   6.328627   6.330692   6.905516   2.169865
    18  H    5.755407   6.534646   7.030038   7.364325   2.131453
    19  H    4.890394   6.315929   6.245098   6.857535   2.177211
    20  H    4.381637   2.532314   3.215619   1.974408   6.946592
                   11         12         13         14         15
    11  C    0.000000
    12  H    4.281071   0.000000
    13  H    4.770462   4.303347   0.000000
    14  H    2.499765   3.717195   2.279767   0.000000
    15  H    6.638932   2.480912   4.958178   5.447305   0.000000
    16  H    6.973434   4.971973   2.487050   4.601969   4.294766
    17  H    1.097060   4.812572   4.822107   2.634653   7.079282
    18  H    1.089907   4.653974   5.801693   3.553242   7.111896
    19  H    1.096528   4.845133   4.683944   2.484202   7.090856
    20  H    8.399761   4.643052   5.326683   6.654124   2.378373
                   16         17         18         19         20
    16  H    0.000000
    17  H    7.095314   0.000000
    18  H    7.918054   1.776982   0.000000
    19  H    6.991594   1.775100   1.779937   0.000000
    20  H    3.533799   8.729246   9.051110   8.702588   0.000000
 Stoichiometry    C8H9NO2
 Framework group  C1[X(C8H9NO2)]
 Deg. of freedom    54
 Full point group                 C1      NOp   1
 Largest Abelian subgroup         C1      NOp   1
 Largest concise Abelian subgroup C1      NOp   1
                         Standard orientation:                         
 ---------------------------------------------------------------------
 Center     Atomic      Atomic             Coordinates (Angstroms)
 Number     Number       Type             X           Y           Z
 ---------------------------------------------------------------------
      1          8           0        3.995738   -0.237739    0.004405
      2          8           0       -2.508790   -1.460814   -0.004160
      3          7           0       -1.551275    0.651380   -0.006397
      4          6           0       -0.163870    0.349546   -0.003617
      5          6           0        0.341168   -0.961609   -0.001793
      6          6           0        0.737003    1.432028   -0.002793
      7          6           0        1.723672   -1.171257    0.000945
      8          6           0        2.112405    1.218305   -0.000100
      9          6           0        2.609151   -0.089479    0.001761
     10          6           0       -2.623645   -0.216372   -0.002611
     11          6           0       -3.981121    0.466440    0.009228
     12          1           0       -0.346003   -1.794832   -0.002447
     13          1           0        0.357066    2.450694   -0.004047
     14          1           0       -1.772778    1.637631   -0.009658
     15          1           0        2.103261   -2.189811    0.002288
     16          1           0        2.811004    2.046238    0.000661
     17          1           0       -4.142693    1.004428    0.951567
     18          1           0       -4.751620   -0.297579   -0.093254
     19          1           0       -4.079446    1.185002   -0.813191
     20          1           0        4.255973   -1.178631    0.004774
 ---------------------------------------------------------------------
 Rotational constants (GHZ):      3.5590920      0.5409864      0.4709979
 Standard basis: 6-31G (6D, 7F)
 There are   117 symmetry adapted cartesian basis functions of A   symmetry.
 There are   117 symmetry adapted basis functions of A   symmetry.
   117 basis functions,   278 primitive gaussians,   117 cartesian basis functions
    40 alpha electrons       40 beta electrons
       nuclear repulsion energy       567.9520922486 Hartrees.
 NAtoms=   20 NActive=   20 NUniq=   20 SFac= 1.00D+00 NAtFMM=   60 NAOKFM=F Big=F
 Integral buffers will be    262144 words long.
 Raffenetti 2 integral format.
 Two-electron integral symmetry is turned on.
 One-electron integrals computed using PRISM.
 NBasis=   117 RedAO= T EigKep=  5.94D-04  NBF=   117
 NBsUse=   117 1.00D-06 EigRej= -1.00D+00 NBFU=   117
 Lowest energy guess from the checkpoint file:  "E:\Research\Paracetamol Project\paracetamol_opt_freq.chk"
 B after Tr=     0.000000    0.000000    0.000000
         Rot=    1.000000    0.000010    0.000000    0.000003 Ang=   0.00 deg.
 B after Tr=     0.000000    0.000000    0.000000
         Rot=    0.999999   -0.001073    0.000281   -0.000403 Ang=  -0.14 deg.
 Keep R1 ints in memory in canonical form, NReq=24825568.
 Requested convergence on RMS density matrix=1.00D-08 within 128 cycles.
 Requested convergence on MAX density matrix=1.00D-06.
 Requested convergence on             energy=1.00D-06.
 No special actions if energy rises.
 Integral accuracy reduced to 1.0D-05 until final iterations.
 Initial convergence to 1.0D-05 achieved.  Increase integral accuracy.
 SCF Done:  E(RB3LYP) =  -515.339400721     A.U. after    8 cycles
            NFock=  8  Conv=0.58D-08     -V/T= 2.0056
 Calling FoFJK, ICntrl=      2127 FMM=F ISym2X=0 I1Cent= 0 IOpClX= 0 NMat=1 NMatS=1 NMatT=0.
 ***** Axes restored to original set *****
 -------------------------------------------------------------------
 Center     Atomic                   Forces (Hartrees/Bohr)
 Number     Number              X              Y              Z
 -------------------------------------------------------------------
      1        8           0.000030743    0.000044293    0.000004908
      2        8          -0.000081000    0.000337603   -0.000260912
      3        7           0.000038392   -0.000300262   -0.000089663
      4        6           0.000118270   -0.000014606   -0.000008323
      5        6          -0.000083318    0.000026196   -0.000018270
      6        6          -0.000079138    0.000058534    0.000001377
      7        6           0.000071123   -0.000026461    0.000005450
      8        6           0.000013351    0.000052024    0.000001797
      9        6          -0.000005352    0.000068466    0.000001102
     10        6          -0.000122978   -0.000163586    0.000537905
     11        6           0.000044147   -0.000098190   -0.000153303
     12        1           0.000076611   -0.000100741    0.000007938
     13        1           0.000023398    0.000006329    0.000001900
     14        1          -0.000016060    0.000064003   -0.000031140
     15        1           0.000041870   -0.000028218   -0.000002428
     16        1          -0.000034316   -0.000023910    0.000002696
     17        1          -0.000003267    0.000053857   -0.000025181
     18        1          -0.000080112    0.000040214    0.000025429
     19        1           0.000021082   -0.000013019    0.000004479
     20        1           0.000026550    0.000017474   -0.000005760
 -------------------------------------------------------------------
 Cartesian Forces:  Max     0.000537905 RMS     0.000111285

 GradGradGradGradGradGradGradGradGradGradGradGradGradGradGradGradGradGrad
 Berny optimization.
 Using GEDIIS/GDIIS optimizer.
 FormGI is forming the generalized inverse of G from B-inverse, IUseBI=4.
 GSVD:  received Info=                   1 from GESDD.
 Internal  Forces:  Max     0.000336857 RMS     0.000073987
 Search for a local minimum.
 Step number  15 out of a maximum of  101
 All quantities printed in internal units (Hartrees-Bohrs-Radians)
 Mixed Optimization -- En-DIIS/RFO-DIIS
 Update second derivatives using D2CorX and points    1    2    3    4    5
                                                      6    7    8    9   11
                                                     12   10   14   13   15
 ITU=  0  0  0  0 -1  1  0  0 -1  0  1  1  1  1  0
 Use linear search instead of GDIIS.
     Eigenvalues ---   -0.00340   0.00004   0.01674   0.01711   0.02028
     Eigenvalues ---    0.02122   0.02155   0.02156   0.02157   0.02157
     Eigenvalues ---    0.02158   0.02159   0.02163   0.02188   0.02686
     Eigenvalues ---    0.05811   0.07375   0.09010   0.12784   0.15554
     Eigenvalues ---    0.15615   0.15993   0.16038   0.16068   0.16318
     Eigenvalues ---    0.17040   0.20331   0.21150   0.21610   0.22445
     Eigenvalues ---    0.22955   0.25218   0.26438   0.29267   0.31539
     Eigenvalues ---    0.34400   0.34449   0.34897   0.35128   0.35166
     Eigenvalues ---    0.35207   0.36304   0.38347   0.41961   0.42342
     Eigenvalues ---    0.44569   0.45144   0.46127   0.46716   0.47742
     Eigenvalues ---    0.51731   0.52810   0.58528   0.82260
 RFO step:  Lambda=-3.41910779D-03 EMin=-3.39631796D-03
 I=     1 Eig=   -3.40D-03 Dot1= -1.48D-04
 I=     1 Stepn= -5.30D-01 RXN=   5.30D-01 EDone=F
 Mixed    1 eigenvectors in step.  Raw Step.Grad=  1.48D-04.
 RFO eigenvector is Hessian eigenvector with negative curvature.
 Taking step of  5.30D-01 in eigenvector direction(s).  Step.Grad=  3.32D-05.
 Quartic linear search produced a step of -0.01053.
 Maximum step size (   0.212) exceeded in Quadratic search.
    -- Step size not scaled.
 Iteration  1 RMS(Cart)=  0.11452838 RMS(Int)=  0.00570537
 Iteration  2 RMS(Cart)=  0.00760699 RMS(Int)=  0.00053096
 Iteration  3 RMS(Cart)=  0.00002873 RMS(Int)=  0.00053064
 Iteration  4 RMS(Cart)=  0.00000001 RMS(Int)=  0.00053064
 Variable       Old X    -DE/DX   Delta X   Delta X   Delta X     New X
                                 (Linear)    (Quad)   (Total)
    R1        2.63521   0.00007   0.00000   0.04104   0.04104   2.67625
    R2        1.84478   0.00002   0.00000   0.02128   0.02128   1.86606
    R3        2.36165   0.00034   0.00000   0.05548   0.05548   2.41713
    R4        2.68315   0.00021   0.00000   0.01764   0.01764   2.70079
    R5        2.60685   0.00029   0.00000   0.04724   0.04724   2.65410
    R6        1.91018  -0.00006   0.00000  -0.00859  -0.00859   1.90159
    R7        2.65518   0.00001   0.00000  -0.00161  -0.00160   2.65358
    R8        2.66132  -0.00007   0.00000  -0.00962  -0.00965   2.65167
    R9        2.64243   0.00011   0.00000   0.01890   0.01894   2.66137
   R10        2.04096  -0.00013   0.00000  -0.01266  -0.01266   2.02830
   R11        2.63033   0.00005   0.00000  -0.00051  -0.00055   2.62978
   R12        2.05454  -0.00001   0.00000   0.00605   0.00605   2.06059
   R13        2.64178  -0.00009   0.00000  -0.04620  -0.04618   2.59560
   R14        2.05411  -0.00002   0.00000   0.00451   0.00451   2.05862
   R15        2.64363   0.00002   0.00000   0.04323   0.04322   2.68685
   R16        2.04712   0.00000   0.00000  -0.00804  -0.00804   2.03908
   R17        2.87158   0.00002   0.00000   0.00476   0.00476   2.87634
   R18        2.07314  -0.00001   0.00000  -0.02071  -0.02071   2.05243
   R19        2.05963   0.00009   0.00000   0.02286   0.02286   2.08249
   R20        2.07214   0.00001   0.00000   0.00121   0.00121   2.07335
    A1        1.94715   0.00005   0.00000   0.06076   0.06076   2.00792
    A2        2.24705   0.00012  -0.00001  -0.02856  -0.02877   2.21827
    A3        2.00594  -0.00003   0.00000   0.02570   0.02549   2.03143
    A4        2.03020  -0.00009   0.00000   0.00294   0.00275   2.03295
    A5        2.15268   0.00011   0.00000  -0.03345  -0.03347   2.11921
    A6        2.05067  -0.00002   0.00000   0.04500   0.04498   2.09564
    A7        2.07983  -0.00009   0.00000  -0.01156  -0.01158   2.06826
    A8        2.08896   0.00005   0.00000   0.01186   0.01192   2.10089
    A9        2.08429  -0.00003   0.00001  -0.07414  -0.07418   2.01012
   A10        2.10993  -0.00002  -0.00001   0.06228   0.06223   2.17216
   A11        2.11073   0.00004   0.00000  -0.00168  -0.00179   2.10893
   A12        2.09051   0.00000   0.00000   0.02461   0.02457   2.11508
   A13        2.08195  -0.00004   0.00000  -0.02292  -0.02295   2.05899
   A14        2.10624   0.00002   0.00000   0.00855   0.00864   2.11489
   A15        2.07802   0.00004   0.00000   0.06171   0.06166   2.13968
   A16        2.09892  -0.00007   0.00000  -0.07026  -0.07030   2.02861
   A17        2.08796   0.00005   0.00000   0.01279   0.01274   2.10070
   A18        2.11752  -0.00007   0.00000  -0.04863  -0.04865   2.06887
   A19        2.07771   0.00002   0.00000   0.03585   0.03583   2.11354
   A20        2.15022   0.00001   0.00000  -0.07393  -0.07401   2.07621
   A21        2.04032   0.00007   0.00000   0.09390   0.09376   2.13408
   A22        2.09264  -0.00008   0.00000  -0.01996  -0.02000   2.07264
   A23        2.15908   0.00016   0.00000   0.00330   0.00067   2.15975
   A24        2.12887  -0.00008   0.00000  -0.00175  -0.00432   2.12455
   A25        1.99523  -0.00008   0.00000  -0.00202  -0.00460   1.99063
   A26        1.93758  -0.00003   0.00000  -0.04292  -0.04286   1.89472
   A27        1.89210   0.00003   0.00000   0.02842   0.02851   1.92061
   A28        1.94843  -0.00002   0.00000   0.02490   0.02495   1.97338
   A29        1.89696  -0.00001   0.00000  -0.02476  -0.02465   1.87231
   A30        1.88565   0.00004   0.00000   0.07967   0.07970   1.96535
   A31        1.90229   0.00000   0.00000  -0.06821  -0.06814   1.83415
    D1        0.00089   0.00000   0.00000  -0.06419  -0.06435  -0.06346
    D2       -3.14072  -0.00001   0.00000  -0.04023  -0.04006   3.10240
    D3        0.00482   0.00000   0.00001  -0.16210  -0.16218  -0.15736
    D4       -3.13686   0.00000   0.00001  -0.17520  -0.17532   2.97101
    D5       -3.13921  -0.00001   0.00000  -0.12328  -0.12316   3.02082
    D6        0.00229  -0.00001   0.00000  -0.13638  -0.13629  -0.13400
    D7       -0.00803   0.00008   0.00000   0.15415   0.15410   0.14607
    D8        3.12957  -0.00009   0.00000   0.02234   0.02216  -3.13145
    D9        3.13603   0.00010   0.00000   0.11485   0.11502  -3.03213
   D10       -0.00955  -0.00007   0.00000  -0.01696  -0.01692  -0.02647
   D11       -3.14157   0.00000   0.00000  -0.00538  -0.00494   3.13668
   D12       -0.00006   0.00000   0.00000   0.00250   0.00241   0.00235
   D13        0.00012   0.00000   0.00000   0.00793   0.00799   0.00811
   D14       -3.14156   0.00000   0.00000   0.01581   0.01535  -3.12622
   D15        3.14159   0.00000   0.00000   0.00600   0.00637  -3.13523
   D16        0.00024   0.00000   0.00000  -0.01447  -0.01453  -0.01429
   D17       -0.00009   0.00000   0.00000  -0.00653  -0.00639  -0.00648
   D18       -3.14144   0.00000   0.00000  -0.02700  -0.02729   3.11445
   D19       -0.00011   0.00000   0.00000  -0.00040  -0.00050  -0.00060
   D20       -3.14154   0.00000   0.00000  -0.00144  -0.00171   3.13994
   D21        3.14158   0.00000   0.00000  -0.00840  -0.00856   3.13302
   D22        0.00014   0.00000   0.00000  -0.00943  -0.00977  -0.00963
   D23        0.00005   0.00000   0.00000  -0.00249  -0.00259  -0.00255
   D24       -3.14147   0.00000   0.00000  -0.01561  -0.01560   3.12611
   D25        3.14140   0.00000   0.00000   0.01789   0.01766  -3.12413
   D26       -0.00012   0.00000   0.00000   0.00477   0.00465   0.00453
   D27       -3.14155   0.00000   0.00000   0.01595   0.01492  -3.12662
   D28        0.00006   0.00000   0.00000  -0.00870  -0.00850  -0.00844
   D29       -0.00011   0.00000   0.00000   0.01701   0.01607   0.01596
   D30        3.14149   0.00000   0.00000  -0.00764  -0.00735   3.13414
   D31        3.14158   0.00000   0.00000  -0.01304  -0.01417   3.12740
   D32       -0.00003   0.00000   0.00000   0.01009   0.01006   0.01003
   D33       -0.00009   0.00000   0.00000  -0.00022  -0.00083  -0.00092
   D34        3.14149   0.00000   0.00000   0.02291   0.02341  -3.11829
   D35        1.97718  -0.00012  -0.00001  -0.18393  -0.18382   1.79336
   D36       -0.10527  -0.00010  -0.00001  -0.14576  -0.14559  -0.25087
   D37       -2.20086  -0.00011  -0.00001  -0.09506  -0.09490  -2.29576
   D38       -1.16050   0.00004  -0.00001  -0.05467  -0.05487  -1.21537
   D39        3.04023   0.00006  -0.00001  -0.01650  -0.01664   3.02359
   D40        0.94464   0.00006  -0.00001   0.03420   0.03406   0.97870
         Item               Value     Threshold  Converged?
 Maximum Force            0.000337     0.000450     YES
 RMS     Force            0.000074     0.000300     YES
 Maximum Displacement     0.457817     0.001800     NO 
 RMS     Displacement     0.112837     0.001200     NO 
 Predicted change in Energy=-6.043047D-04
 GradGradGradGradGradGradGradGradGradGradGradGradGradGradGradGradGradGrad

                          Input orientation:                          
 ---------------------------------------------------------------------
 Center     Atomic      Atomic             Coordinates (Angstroms)
 Number     Number       Type             X           Y           Z
 ---------------------------------------------------------------------
      1          8           0        3.925914    0.542331    0.051535
      2          8           0       -2.550444    1.400711    0.071773
      3          7           0       -1.595666   -0.761789   -0.056615
      4          6           0       -0.204012   -0.436860   -0.038578
      5          6           0        0.237007    0.895952   -0.069106
      6          6           0        0.755748   -1.458421    0.026647
      7          6           0        1.613838    1.191152   -0.044510
      8          6           0        2.114689   -1.159751    0.052664
      9          6           0        2.554415    0.191697    0.010258
     10          6           0       -2.675016    0.127703    0.071416
     11          6           0       -4.040594   -0.542918    0.024157
     12          1           0       -0.541711    1.633794   -0.104019
     13          1           0        0.461520   -2.507148    0.077711
     14          1           0       -1.826092   -1.737681   -0.141096
     15          1           0        1.995855    2.211069   -0.068299
     16          1           0        2.820196   -1.973595    0.117691
     17          1           0       -4.214362   -0.902517   -0.985847
     18          1           0       -4.830199    0.191779    0.250337
     19          1           0       -4.158939   -1.330751    0.778538
     20          1           0        4.112454    1.509443   -0.019258
 ---------------------------------------------------------------------
                    Distance matrix (angstroms):
                    1          2          3          4          5
     1  O    0.000000
     2  O    6.533027   0.000000
     3  N    5.674528   2.367381   0.000000
     4  C    4.245377   2.982379   1.429197   0.000000
     5  C    3.707780   2.836285   2.471225   1.404214   0.000000
     6  C    3.748810   4.371222   2.453850   1.403204   2.412744
     7  C    2.403308   4.171173   3.756999   2.440294   1.408336
     8  C    2.485482   5.321635   3.733236   2.430488   2.786831
     9  C    1.416212   5.246436   4.258731   2.829557   2.423356
    10  C    6.613969   1.279088   1.404487   2.537063   3.014935
    11  C    8.040135   2.449594   2.456033   3.838560   4.514080
    12  H    4.601648   2.029837   2.617611   2.099031   1.073328
    13  H    4.615412   4.933895   2.701173   2.177739   3.413656
    14  H    6.190407   3.227926   1.006280   2.081775   3.346279
    15  H    2.554246   4.620080   4.662301   3.442648   2.196151
    16  H    2.748976   6.342856   4.582433   3.395852   3.865495
    17  H    8.332337   3.031838   2.782237   4.146934   4.887698
    18  H    8.765382   2.586636   3.386106   4.677634   5.125864
    19  H    8.330775   3.247715   2.755279   4.136202   5.000105
    20  H    0.987478   6.664407   6.143495   4.735013   3.924022
                    6          7          8          9         10
     6  C    0.000000
     7  C    2.785968   0.000000
     8  C    1.391618   2.405626   0.000000
     9  C    2.440976   1.373534   1.421819   0.000000
    10  C    3.779939   4.420252   4.959754   5.230180   0.000000
    11  C    4.882935   5.914754   6.186178   6.635812   1.522094
    12  H    3.355930   2.201333   3.858096   3.417412   2.617264
    13  H    1.090415   3.875589   2.132855   3.415922   4.096381
    14  H    2.602311   4.518906   3.987643   4.788972   2.060459
    15  H    3.874537   1.089373   3.375082   2.096669   5.116343
    16  H    2.129704   3.390756   1.079032   2.184186   5.883447
    17  H    5.102565   6.263982   6.418844   6.928627   2.132779
    18  H    5.828894   6.527732   7.077936   7.388516   2.163547
    19  H    4.973509   6.353137   6.317795   6.926560   2.197530
    20  H    4.480826   2.518935   3.334792   2.040787   6.927278
                   11         12         13         14         15
    11  C    0.000000
    12  H    4.122703   0.000000
    13  H    4.912240   4.264610   0.000000
    14  H    2.521664   3.608026   2.423453   0.000000
    15  H    6.635639   2.602646   4.963574   5.495926   0.000000
    16  H    7.008996   4.936074   2.418601   4.659465   4.269138
    17  H    1.086101   4.549600   5.056665   2.667384   7.007361
    18  H    1.102004   4.538293   5.942751   3.591754   7.125593
    19  H    1.097167   4.759387   4.819098   2.540373   7.151441
    20  H    8.407513   4.656598   5.428786   6.769416   2.230398
                   16         17         18         19         20
    16  H    0.000000
    17  H    7.200695   0.000000
    18  H    7.952043   1.762070   0.000000
    19  H    7.039765   1.816455   1.745761   0.000000
    20  H    3.717558   8.722827   9.043228   8.781749   0.000000
 Stoichiometry    C8H9NO2
 Framework group  C1[X(C8H9NO2)]
 Deg. of freedom    54
 Full point group                 C1      NOp   1
 Largest Abelian subgroup         C1      NOp   1
 Largest concise Abelian subgroup C1      NOp   1
                         Standard orientation:                         
 ---------------------------------------------------------------------
 Center     Atomic      Atomic             Coordinates (Angstroms)
 Number     Number       Type             X           Y           Z
 ---------------------------------------------------------------------
      1          8           0        3.997463   -0.375119   -0.047380
      2          8           0       -2.437874   -1.500433   -0.070625
      3          7           0       -1.573255    0.698898    0.070338
      4          6           0       -0.169366    0.431905    0.049912
      5          6           0        0.326403   -0.881687    0.072352
      6          6           0        0.747296    1.492649   -0.009536
      7          6           0        1.714248   -1.119550    0.045549
      8          6           0        2.117409    1.250588   -0.037775
      9          6           0        2.612664   -0.081749   -0.003567
     10          6           0       -2.614975   -0.233690   -0.062640
     11          6           0       -4.007088    0.379598   -0.010940
     12          1           0       -0.421121   -1.651293    0.103121
     13          1           0        0.409927    2.528597   -0.054252
     14          1           0       -1.843787    1.663908    0.160709
     15          1           0        2.138124   -2.122921    0.063135
     16          1           0        2.788624    2.093281   -0.098180
     17          1           0       -4.194998    0.725696    1.001246
     18          1           0       -4.765768   -0.385765   -0.241238
     19          1           0       -4.158338    1.166331   -0.760573
     20          1           0        4.223873   -1.334093    0.017586
 ---------------------------------------------------------------------
 Rotational constants (GHZ):      3.4540356      0.5413026      0.4697688
 Standard basis: 6-31G (6D, 7F)
 There are   117 symmetry adapted cartesian basis functions of A   symmetry.
 There are   117 symmetry adapted basis functions of A   symmetry.
   117 basis functions,   278 primitive gaussians,   117 cartesian basis functions
    40 alpha electrons       40 beta electrons
       nuclear repulsion energy       565.7644777316 Hartrees.
 NAtoms=   20 NActive=   20 NUniq=   20 SFac= 1.00D+00 NAtFMM=   60 NAOKFM=F Big=F
 Integral buffers will be    262144 words long.
 Raffenetti 2 integral format.
 Two-electron integral symmetry is turned on.
 One-electron integrals computed using PRISM.
 NBasis=   117 RedAO= T EigKep=  5.83D-04  NBF=   117
 NBsUse=   117 1.00D-06 EigRej= -1.00D+00 NBFU=   117
 Initial guess from the checkpoint file:  "E:\Research\Paracetamol Project\paracetamol_opt_freq.chk"
 B after Tr=     0.000000    0.000000    0.000000
         Rot=    0.999997   -0.001863    0.000058   -0.001408 Ang=  -0.27 deg.
 ExpMin= 1.61D-01 ExpMax= 5.48D+03 ExpMxC= 8.25D+02 IAcc=1 IRadAn=         1 AccDes= 0.00D+00
 Harris functional with IExCor=  402 and IRadAn=       1 diagonalized for initial guess.
 HarFok:  IExCor=  402 AccDes= 0.00D+00 IRadAn=         1 IDoV= 1 UseB2=F ITyADJ=14
 ICtDFT=  3500011 ScaDFX=  1.000000  1.000000  1.000000  1.000000
 FoFCou: FMM=F IPFlag=           0 FMFlag=      100000 FMFlg1=           0
         NFxFlg=           0 DoJE=T BraDBF=F KetDBF=T FulRan=T
         wScrn=  0.000000 ICntrl=     500 IOpCl=  0 I1Cent=   200000004 NGrid=           0
         NMat0=    1 NMatS0=      1 NMatT0=    0 NMatD0=    1 NMtDS0=    0 NMtDT0=    0
 Petite list used in FoFCou.
 Keep R1 ints in memory in canonical form, NReq=24825568.
 Requested convergence on RMS density matrix=1.00D-08 within 128 cycles.
 Requested convergence on MAX density matrix=1.00D-06.
 Requested convergence on             energy=1.00D-06.
 No special actions if energy rises.
 Integral accuracy reduced to 1.0D-05 until final iterations.
 Initial convergence to 1.0D-05 achieved.  Increase integral accuracy.
 SCF Done:  E(RB3LYP) =  -515.329270721     A.U. after   14 cycles
            NFock= 14  Conv=0.84D-08     -V/T= 2.0061
 Calling FoFJK, ICntrl=      2127 FMM=F ISym2X=0 I1Cent= 0 IOpClX= 0 NMat=1 NMatS=1 NMatT=0.
 ***** Axes restored to original set *****
 -------------------------------------------------------------------
 Center     Atomic                   Forces (Hartrees/Bohr)
 Number     Number              X              Y              Z
 -------------------------------------------------------------------
      1        8          -0.002855129   -0.015544810   -0.000565382
      2        8          -0.004412938   -0.037049745    0.005614402
      3        7          -0.006158486    0.018973665    0.006558139
      4        6          -0.002195868    0.004137518   -0.000084556
      5        6           0.005464174   -0.000766484   -0.000938732
      6        6           0.000365100   -0.004268324    0.000708442
      7        6          -0.020334898    0.011253175   -0.001433840
      8        6           0.013577731    0.010741187   -0.000217948
      9        6           0.014028773   -0.009203675    0.002215517
     10        6           0.011242706    0.020306123   -0.013099002
     11        6          -0.005005908    0.012749180    0.013084225
     12        1           0.002853682    0.010287900   -0.000329891
     13        1          -0.001133317    0.002636765   -0.000705461
     14        1          -0.000425142   -0.003889326    0.001534849
     15        1          -0.009198949    0.002113070   -0.000102221
     16        1           0.005399084    0.000359826   -0.000304439
     17        1          -0.002501681   -0.008036975   -0.003728648
     18        1           0.008008119    0.000028556   -0.002988187
     19        1           0.003934498   -0.004582707   -0.005757017
     20        1          -0.010651552   -0.010244919    0.000539748
 -------------------------------------------------------------------
 Cartesian Forces:  Max     0.037049745 RMS     0.009210025

 GradGradGradGradGradGradGradGradGradGradGradGradGradGradGradGradGradGrad
 Berny optimization.
 Using GEDIIS/GDIIS optimizer.
 FormGI is forming the generalized inverse of G from B-inverse, IUseBI=4.
 GSVD:  received Info=                   1 from GESDD.
 Internal  Forces:  Max     0.037298940 RMS     0.008352913
 Search for a local minimum.
 Step number  16 out of a maximum of  101
 All quantities printed in internal units (Hartrees-Bohrs-Radians)
 Mixed Optimization -- RFO/linear search
 Update second derivatives using D2CorX and points    1    2    3    4    5
                                                      6    7    8    9   11
                                                     12   10   14   13   16
                                                     15
 ITU=  0  0  0  0  0 -1  1  0  0 -1  0  1  1  1  1  0
 Use linear search instead of GDIIS.
 Energy rises -- skip Quadratic/GDIIS search.
 Quartic linear search produced a step of -0.99303.
 Iteration  1 RMS(Cart)=  0.10905331 RMS(Int)=  0.00545365
 Iteration  2 RMS(Cart)=  0.00793949 RMS(Int)=  0.00002339
 Iteration  3 RMS(Cart)=  0.00003383 RMS(Int)=  0.00000367
 Iteration  4 RMS(Cart)=  0.00000000 RMS(Int)=  0.00000367
 Variable       Old X    -DE/DX   Delta X   Delta X   Delta X     New X
                                 (Linear)    (Quad)   (Total)
    R1        2.67625  -0.01947  -0.04076   0.00000  -0.04076   2.63550
    R2        1.86606  -0.01209  -0.02113   0.00000  -0.02113   1.84493
    R3        2.41713  -0.03730  -0.05509   0.00000  -0.05509   2.36204
    R4        2.70079  -0.00424  -0.01752   0.00000  -0.01752   2.68327
    R5        2.65410  -0.01977  -0.04691   0.00000  -0.04691   2.60718
    R6        1.90159   0.00374   0.00853   0.00000   0.00853   1.91012
    R7        2.65358   0.00313   0.00159   0.00000   0.00159   2.65517
    R8        2.65167   0.00518   0.00958   0.00000   0.00958   2.66125
    R9        2.66137  -0.01195  -0.01881   0.00000  -0.01881   2.64256
   R10        2.02830   0.00501   0.01258   0.00000   0.01258   2.04087
   R11        2.62978  -0.00010   0.00055   0.00000   0.00055   2.63033
   R12        2.06059  -0.00226  -0.00601   0.00000  -0.00601   2.05458
   R13        2.59560   0.02631   0.04585   0.00000   0.04585   2.64146
   R14        2.05862  -0.00125  -0.00448   0.00000  -0.00448   2.05414
   R15        2.68685  -0.02106  -0.04292   0.00000  -0.04292   2.64393
   R16        2.03908   0.00324   0.00799   0.00000   0.00799   2.04706
   R17        2.87634  -0.00407  -0.00473   0.00000  -0.00473   2.87162
   R18        2.05243   0.00653   0.02056   0.00000   0.02056   2.07300
   R19        2.08249  -0.00633  -0.02270   0.00000  -0.02270   2.05979
   R20        2.07335  -0.00110  -0.00120   0.00000  -0.00120   2.07215
    A1        2.00792  -0.01590  -0.06034   0.00000  -0.06034   1.94758
    A2        2.21827   0.01295   0.02857   0.00000   0.02857   2.24685
    A3        2.03143  -0.00684  -0.02531   0.00000  -0.02531   2.00612
    A4        2.03295  -0.00612  -0.00273   0.00000  -0.00273   2.03022
    A5        2.11921   0.01142   0.03324   0.00000   0.03324   2.15245
    A6        2.09564  -0.01473  -0.04466   0.00000  -0.04466   2.05098
    A7        2.06826   0.00332   0.01150   0.00000   0.01150   2.07975
    A8        2.10089  -0.00604  -0.01184   0.00000  -0.01184   2.08905
    A9        2.01012   0.01259   0.07366   0.00000   0.07366   2.08377
   A10        2.17216  -0.00654  -0.06179   0.00000  -0.06179   2.11036
   A11        2.10893   0.00285   0.00178   0.00000   0.00178   2.11071
   A12        2.11508  -0.00330  -0.02440   0.00000  -0.02440   2.09068
   A13        2.05899   0.00046   0.02279   0.00000   0.02279   2.08179
   A14        2.11489  -0.00093  -0.00858   0.00000  -0.00859   2.10630
   A15        2.13968  -0.00916  -0.06123   0.00000  -0.06123   2.07845
   A16        2.02861   0.01009   0.06981   0.00000   0.06981   2.09843
   A17        2.10070  -0.00479  -0.01265   0.00000  -0.01265   2.08805
   A18        2.06887   0.00680   0.04831   0.00000   0.04831   2.11718
   A19        2.11354  -0.00200  -0.03558   0.00000  -0.03558   2.07796
   A20        2.07621   0.01824   0.07349   0.00000   0.07349   2.14971
   A21        2.13408  -0.02383  -0.09311   0.00000  -0.09311   2.04098
   A22        2.07264   0.00561   0.01986   0.00000   0.01986   2.09250
   A23        2.15975   0.00220  -0.00067   0.00000  -0.00065   2.15910
   A24        2.12455  -0.00023   0.00429   0.00000   0.00431   2.12886
   A25        1.99063  -0.00149   0.00457   0.00000   0.00459   1.99522
   A26        1.89472   0.00563   0.04256   0.00000   0.04256   1.93728
   A27        1.92061  -0.00650  -0.02831   0.00000  -0.02831   1.89230
   A28        1.97338  -0.00188  -0.02478   0.00000  -0.02478   1.94860
   A29        1.87231   0.00173   0.02448   0.00000   0.02448   1.89679
   A30        1.96535  -0.00593  -0.07914   0.00000  -0.07914   1.88621
   A31        1.83415   0.00685   0.06766   0.00000   0.06766   1.90181
    D1       -0.06346   0.00055   0.06390   0.00000   0.06390   0.00044
    D2        3.10240  -0.00015   0.03978   0.00000   0.03978  -3.14100
    D3       -0.15736  -0.00029   0.16105   0.00000   0.16105   0.00369
    D4        2.97101   0.00030   0.17410   0.00000   0.17410  -3.13808
    D5        3.02082   0.00007   0.12230   0.00000   0.12230  -3.14007
    D6       -0.13400   0.00065   0.13534   0.00000   0.13534   0.00134
    D7        0.14607  -0.00273  -0.15303   0.00000  -0.15303  -0.00696
    D8       -3.13145   0.00119  -0.02201   0.00000  -0.02201   3.12973
    D9       -3.03213  -0.00310  -0.11422   0.00000  -0.11422   3.13683
   D10       -0.02647   0.00082   0.01680   0.00000   0.01680  -0.00967
   D11        3.13668   0.00006   0.00491   0.00000   0.00490   3.14158
   D12        0.00235   0.00025  -0.00239   0.00000  -0.00239  -0.00004
   D13        0.00811  -0.00038  -0.00794   0.00000  -0.00794   0.00017
   D14       -3.12622  -0.00019  -0.01524   0.00000  -0.01524  -3.14145
   D15       -3.13523  -0.00059  -0.00632   0.00000  -0.00633  -3.14155
   D16       -0.01429   0.00001   0.01443   0.00000   0.01443   0.00014
   D17       -0.00648   0.00005   0.00635   0.00000   0.00635  -0.00014
   D18        3.11445   0.00065   0.02710   0.00000   0.02710   3.14155
   D19       -0.00060   0.00027   0.00049   0.00000   0.00049  -0.00011
   D20        3.13994   0.00021   0.00170   0.00000   0.00170  -3.14155
   D21        3.13302   0.00015   0.00850   0.00000   0.00850   3.14152
   D22       -0.00963   0.00009   0.00970   0.00000   0.00971   0.00008
   D23       -0.00255   0.00028   0.00257   0.00000   0.00257   0.00003
   D24        3.12611   0.00048   0.01549   0.00000   0.01549  -3.14158
   D25       -3.12413  -0.00026  -0.01753   0.00000  -0.01753   3.14153
   D26        0.00453  -0.00006  -0.00461   0.00000  -0.00461  -0.00008
   D27       -3.12662  -0.00020  -0.01482   0.00000  -0.01481  -3.14143
   D28       -0.00844   0.00004   0.00844   0.00000   0.00844   0.00000
   D29        0.01596  -0.00014  -0.01596   0.00000  -0.01595   0.00000
   D30        3.13414   0.00011   0.00730   0.00000   0.00730   3.14144
   D31        3.12740   0.00050   0.01407   0.00000   0.01408   3.14148
   D32        0.01003  -0.00036  -0.00999   0.00000  -0.00999   0.00004
   D33       -0.00092   0.00023   0.00082   0.00000   0.00083  -0.00009
   D34       -3.11829  -0.00063  -0.02324   0.00000  -0.02325  -3.14154
   D35        1.79336   0.00397   0.18254   0.00000   0.18254   1.97590
   D36       -0.25087   0.00228   0.14458   0.00000   0.14458  -0.10629
   D37       -2.29576  -0.00081   0.09424   0.00000   0.09424  -2.20153
   D38       -1.21537  -0.00007   0.05448   0.00000   0.05448  -1.16089
   D39        3.02359  -0.00176   0.01652   0.00000   0.01652   3.04011
   D40        0.97870  -0.00485  -0.03382   0.00000  -0.03382   0.94488
         Item               Value     Threshold  Converged?
 Maximum Force            0.037299     0.000450     NO 
 RMS     Force            0.008353     0.000300     NO 
 Maximum Displacement     0.454692     0.001800     NO 
 RMS     Displacement     0.112040     0.001200     NO 
 Predicted change in Energy=-1.621412D-04
 GradGradGradGradGradGradGradGradGradGradGradGradGradGradGradGradGradGrad

                          Input orientation:                          
 ---------------------------------------------------------------------
 Center     Atomic      Atomic             Coordinates (Angstroms)
 Number     Number       Type             X           Y           Z
 ---------------------------------------------------------------------
      1          8           0        3.922068    0.378191   -0.004578
      2          8           0       -2.619660    1.379989   -0.002848
      3          7           0       -1.591891   -0.699270    0.010870
      4          6           0       -0.215362   -0.350933    0.006382
      5          6           0        0.244965    0.976539   -0.003365
      6          6           0        0.721728   -1.402154    0.012328
      7          6           0        1.619622    1.233011   -0.007210
      8          6           0        2.089075   -1.141850    0.008516
      9          6           0        2.541278    0.182128   -0.001326
     10          6           0       -2.692820    0.132209    0.002926
     11          6           0       -4.026707   -0.595697   -0.005100
     12          1           0       -0.470427    1.785587   -0.007816
     13          1           0        0.376772   -2.433188    0.019918
     14          1           0       -1.780259   -1.692319    0.019316
     15          1           0        1.964850    2.263710   -0.014717
     16          1           0        2.815103   -1.945785    0.013038
     17          1           0       -4.170129   -1.143130   -0.944845
     18          1           0       -4.822534    0.142517    0.093797
     19          1           0       -4.101145   -1.312823    0.821080
     20          1           0        4.150074    1.327469   -0.010966
 ---------------------------------------------------------------------
                    Distance matrix (angstroms):
                    1          2          3          4          5
     1  O    0.000000
     2  O    6.617992   0.000000
     3  N    5.618265   2.319443   0.000000
     4  C    4.201199   2.962571   1.419926   0.000000
     5  C    3.725468   2.892896   2.486479   1.405054   0.000000
     6  C    3.662253   4.348037   2.418032   1.408275   2.426053
     7  C    2.456010   4.241831   3.748046   2.424093   1.398383
     8  C    2.381295   5.341534   3.707477   2.436387   2.808640
     9  C    1.394645   5.298127   4.226120   2.807717   2.429845
    10  C    6.619465   1.249936   1.379662   2.524131   3.056717
    11  C    8.008214   2.425515   2.437071   3.819214   4.551825
    12  H    4.612460   2.187176   2.726269   2.151738   1.079983
    13  H    4.524775   4.849685   2.623392   2.164854   3.412354
    14  H    6.066640   3.184990   1.010792   2.061161   3.350351
    15  H    2.717717   4.668922   4.629288   3.404427   2.148241
    16  H    2.574209   6.371631   4.579891   3.424517   3.891768
    17  H    8.287471   3.107642   2.785267   4.143982   4.987227
    18  H    8.748331   2.528503   3.339542   4.634346   5.136592
    19  H    8.240946   3.181963   2.707258   4.085128   4.980919
    20  H    0.976296   6.769943   6.089196   4.677004   3.920853
                    6          7          8          9         10
     6  C    0.000000
     7  C    2.784006   0.000000
     8  C    1.391909   2.420868   0.000000
     9  C    2.412654   1.397798   1.399108   0.000000
    10  C    3.743460   4.450733   4.948715   5.234338   0.000000
    11  C    4.816462   5.935083   6.140135   6.613883   1.519594
    12  H    3.403429   2.161861   3.888599   3.411962   2.769984
    13  H    1.087237   3.871231   2.144683   3.394911   4.000493
    14  H    2.518766   4.485248   3.908309   4.710590   2.040082
    15  H    3.871000   1.087004   3.407904   2.159961   5.122255
    16  H    2.162812   3.396223   1.083259   2.145507   5.886882
    17  H    4.991346   6.328224   6.331392   6.905759   2.169607
    18  H    5.755995   6.534581   7.030448   7.364533   2.131676
    19  H    4.891028   6.316210   6.245663   6.858062   2.177354
    20  H    4.382344   2.532217   3.216463   1.974873   6.946513
                   11         12         13         14         15
    11  C    0.000000
    12  H    4.279913   0.000000
    13  H    4.771543   4.303090   0.000000
    14  H    2.499941   3.716480   2.280717   0.000000
    15  H    6.638905   2.481778   4.958230   5.447675   0.000000
    16  H    6.973768   4.971748   2.486578   4.602351   4.294595
    17  H    1.096983   4.810738   4.823829   2.634899   7.078817
    18  H    1.089991   4.653046   5.802801   3.553534   7.111949
    19  H    1.096532   4.844515   4.684956   2.484623   7.091293
    20  H    8.399902   4.643157   5.327411   6.654989   2.377344
                   16         17         18         19         20
    16  H    0.000000
    17  H    7.096144   0.000000
    18  H    7.918398   1.776878   0.000000
    19  H    6.992000   1.775399   1.779707   0.000000
    20  H    3.535098   8.729362   9.051120   8.703221   0.000000
 Stoichiometry    C8H9NO2
 Framework group  C1[X(C8H9NO2)]
 Deg. of freedom    54
 Full point group                 C1      NOp   1
 Largest Abelian subgroup         C1      NOp   1
 Largest concise Abelian subgroup C1      NOp   1
                         Standard orientation:                         
 ---------------------------------------------------------------------
 Center     Atomic      Atomic             Coordinates (Angstroms)
 Number     Number       Type             X           Y           Z
 ---------------------------------------------------------------------
      1          8           0        3.995812   -0.238719    0.004030
      2          8           0       -2.508302   -1.461110   -0.004643
      3          7           0       -1.551427    0.651757   -0.005878
      4          6           0       -0.163907    0.350142   -0.003243
      5          6           0        0.341043   -0.961040   -0.001294
      6          6           0        0.737101    1.432465   -0.002815
      7          6           0        1.723586   -1.170903    0.001242
      8          6           0        2.112469    1.218526   -0.000336
      9          6           0        2.609181   -0.089440    0.001728
     10          6           0       -2.623612   -0.216504   -0.003032
     11          6           0       -3.981348    0.465823    0.009104
     12          1           0       -0.346583   -1.793827   -0.001748
     13          1           0        0.357480    2.451273   -0.004347
     14          1           0       -1.773266    1.637901   -0.008467
     15          1           0        2.103468   -2.189365    0.002693
     16          1           0        2.810898    2.046563    0.000019
     17          1           0       -4.143154    1.002511    0.952055
     18          1           0       -4.751763   -0.298279   -0.094289
     19          1           0       -4.080031    1.184907   -0.812822
     20          1           0        4.255785   -1.179765    0.004826
 ---------------------------------------------------------------------
 Rotational constants (GHZ):      3.5584785      0.5409805      0.4709831
 Standard basis: 6-31G (6D, 7F)
 There are   117 symmetry adapted cartesian basis functions of A   symmetry.
 There are   117 symmetry adapted basis functions of A   symmetry.
   117 basis functions,   278 primitive gaussians,   117 cartesian basis functions
    40 alpha electrons       40 beta electrons
       nuclear repulsion energy       567.9350654913 Hartrees.
 NAtoms=   20 NActive=   20 NUniq=   20 SFac= 1.00D+00 NAtFMM=   60 NAOKFM=F Big=F
 Integral buffers will be    262144 words long.
 Raffenetti 2 integral format.
 Two-electron integral symmetry is turned on.
 One-electron integrals computed using PRISM.
 NBasis=   117 RedAO= T EigKep=  5.94D-04  NBF=   117
 NBsUse=   117 1.00D-06 EigRej= -1.00D+00 NBFU=   117
 Lowest energy guess from the checkpoint file:  "E:\Research\Paracetamol Project\paracetamol_opt_freq.chk"
 B after Tr=     0.000000    0.000000    0.000000
         Rot=    1.000000   -0.000021    0.000000   -0.000008 Ang=   0.00 deg.
 B after Tr=     0.000000    0.000000    0.000000
         Rot=    0.999997    0.001842   -0.000058    0.001400 Ang=   0.27 deg.
 Keep R1 ints in memory in canonical form, NReq=24825568.
 Requested convergence on RMS density matrix=1.00D-08 within 128 cycles.
 Requested convergence on MAX density matrix=1.00D-06.
 Requested convergence on             energy=1.00D-06.
 No special actions if energy rises.
 Integral accuracy reduced to 1.0D-05 until final iterations.
 Initial convergence to 1.0D-05 achieved.  Increase integral accuracy.
 SCF Done:  E(RB3LYP) =  -515.339401211     A.U. after    8 cycles
            NFock=  8  Conv=0.61D-08     -V/T= 2.0056
 Calling FoFJK, ICntrl=      2127 FMM=F ISym2X=0 I1Cent= 0 IOpClX= 0 NMat=1 NMatS=1 NMatT=0.
 ***** Axes restored to original set *****
 -------------------------------------------------------------------
 Center     Atomic                   Forces (Hartrees/Bohr)
 Number     Number              X              Y              Z
 -------------------------------------------------------------------
      1        8          -0.000020778   -0.000067771   -0.000001663
      2        8          -0.000099656    0.000046639   -0.000214438
      3        7          -0.000019596   -0.000155680   -0.000062348
      4        6           0.000099536    0.000012882   -0.000005279
      5        6          -0.000045739    0.000025160   -0.000022762
      6        6          -0.000079499    0.000029096    0.000004436
      7        6          -0.000061673    0.000048859    0.000001514
      8        6           0.000123494    0.000137561   -0.000000502
      9        6           0.000099054    0.000000772    0.000012837
     10        6          -0.000037249    0.000000098    0.000445918
     11        6           0.000005196    0.000001396   -0.000074681
     12        1           0.000100656   -0.000034033    0.000006511
     13        1           0.000015759    0.000025082   -0.000001501
     14        1          -0.000016881    0.000037617   -0.000017492
     15        1          -0.000021295   -0.000015735   -0.000001229
     16        1           0.000003271   -0.000020618   -0.000000691
     17        1          -0.000017175   -0.000006421   -0.000038490
     18        1          -0.000020295    0.000036506    0.000005892
     19        1           0.000049775   -0.000047581   -0.000033388
     20        1          -0.000056904   -0.000053828   -0.000002645
 -------------------------------------------------------------------
 Cartesian Forces:  Max     0.000445918 RMS     0.000081577

 GradGradGradGradGradGradGradGradGradGradGradGradGradGradGradGradGradGrad
 Berny optimization.
 Using GEDIIS/GDIIS optimizer.
 FormGI is forming the generalized inverse of G from B-inverse, IUseBI=4.
 GSVD:  received Info=                   1 from GESDD.
 Internal  Forces:  Max     0.000198858 RMS     0.000063760
 Search for a local minimum.
 Step number  17 out of a maximum of  101
 All quantities printed in internal units (Hartrees-Bohrs-Radians)
 Mixed Optimization -- En-DIIS/RFO-DIIS
 Update second derivatives using D2CorX and points    1    2    3    4    5
                                                      6    7    8    9   11
                                                     12   10   14   13   16
                                                     15   17
 ITU=  0  0  0  0  0  0 -1  1  0  0 -1  0  1  1  1  1  0
 Use linear search instead of GDIIS.
     Eigenvalues ---   -0.00032   0.00934   0.01674   0.01711   0.02033
     Eigenvalues ---    0.02149   0.02155   0.02157   0.02157   0.02157
     Eigenvalues ---    0.02158   0.02160   0.02164   0.02193   0.03960
     Eigenvalues ---    0.06792   0.07369   0.08438   0.12933   0.13931
     Eigenvalues ---    0.15959   0.16005   0.16026   0.16211   0.16282
     Eigenvalues ---    0.17863   0.18131   0.20935   0.22307   0.22960
     Eigenvalues ---    0.24859   0.25667   0.26310   0.30615   0.33938
     Eigenvalues ---    0.34428   0.34458   0.34669   0.35162   0.35196
     Eigenvalues ---    0.35509   0.35560   0.39350   0.41606   0.42600
     Eigenvalues ---    0.44434   0.45157   0.45637   0.46957   0.48142
     Eigenvalues ---    0.52678   0.53459   0.56037   0.86072
 RFO step:  Lambda=-3.43379600D-04 EMin=-3.22348101D-04
 I=     1 Eig=   -3.22D-04 Dot1=  4.49D-05
 I=     1 Stepn=  5.30D-01 RXN=   5.30D-01 EDone=F
 Mixed    1 eigenvectors in step.  Raw Step.Grad=  4.49D-05.
 RFO eigenvector is Hessian eigenvector with negative curvature.
 Taking step of  5.30D-01 in eigenvector direction(s).  Step.Grad=  7.69D-07.
 Quartic linear search produced a step of -0.00156.
 Iteration  1 RMS(Cart)=  0.06860395 RMS(Int)=  0.00769832
 Iteration  2 RMS(Cart)=  0.00860966 RMS(Int)=  0.00008733
 Iteration  3 RMS(Cart)=  0.00010317 RMS(Int)=  0.00001417
 Iteration  4 RMS(Cart)=  0.00000002 RMS(Int)=  0.00001417
 Variable       Old X    -DE/DX   Delta X   Delta X   Delta X     New X
                                 (Linear)    (Quad)   (Total)
    R1        2.63550  -0.00009   0.00000  -0.00037  -0.00037   2.63513
    R2        1.84493  -0.00007   0.00000  -0.00009  -0.00009   1.84484
    R3        2.36204   0.00005   0.00000  -0.00019  -0.00019   2.36184
    R4        2.68327   0.00017   0.00000  -0.00050  -0.00050   2.68277
    R5        2.60718   0.00013   0.00000   0.00071   0.00071   2.60789
    R6        1.91012  -0.00004   0.00000  -0.00022  -0.00022   1.90990
    R7        2.65517   0.00003   0.00000   0.00053   0.00053   2.65570
    R8        2.66125  -0.00004   0.00000   0.00001   0.00001   2.66126
    R9        2.64256   0.00002   0.00000  -0.00046  -0.00046   2.64210
   R10        2.04087  -0.00009   0.00000  -0.00010  -0.00010   2.04077
   R11        2.63033   0.00004   0.00000  -0.00028  -0.00028   2.63004
   R12        2.05458  -0.00003   0.00000   0.00013   0.00013   2.05471
   R13        2.64146   0.00008   0.00000   0.00002   0.00002   2.64148
   R14        2.05414  -0.00002   0.00000   0.00010   0.00010   2.05424
   R15        2.64393  -0.00014   0.00000   0.00022   0.00022   2.64415
   R16        2.04706   0.00002   0.00000  -0.00006  -0.00006   2.04701
   R17        2.87162  -0.00001   0.00000   0.00002   0.00002   2.87164
   R18        2.07300   0.00004   0.00000   0.00062   0.00062   2.07362
   R19        2.05979   0.00004   0.00000   0.00053   0.00053   2.06031
   R20        2.07215   0.00000   0.00000  -0.00110  -0.00110   2.07105
    A1        1.94758  -0.00007   0.00000  -0.00034  -0.00034   1.94724
    A2        2.24685   0.00020   0.00000  -0.00089  -0.00090   2.24595
    A3        2.00612  -0.00007   0.00000   0.00026   0.00025   2.00637
    A4        2.03022  -0.00012   0.00000   0.00063   0.00063   2.03085
    A5        2.15245   0.00019   0.00000   0.00077   0.00077   2.15322
    A6        2.05098  -0.00012   0.00000  -0.00051  -0.00051   2.05047
    A7        2.07975  -0.00006   0.00000  -0.00026  -0.00026   2.07949
    A8        2.08905   0.00000   0.00000   0.00008   0.00008   2.08912
    A9        2.08377   0.00005   0.00000  -0.00094  -0.00094   2.08283
   A10        2.11036  -0.00006   0.00000   0.00087   0.00087   2.11123
   A11        2.11071   0.00006   0.00000   0.00017   0.00017   2.11088
   A12        2.09068  -0.00003   0.00000   0.00024   0.00024   2.09092
   A13        2.08179  -0.00003   0.00000  -0.00041  -0.00041   2.08138
   A14        2.10630   0.00001   0.00000   0.00011   0.00011   2.10642
   A15        2.07845  -0.00002   0.00000   0.00018   0.00018   2.07863
   A16        2.09843   0.00000   0.00000  -0.00030  -0.00029   2.09813
   A17        2.08805   0.00001   0.00000   0.00002   0.00002   2.08806
   A18        2.11718  -0.00002   0.00000  -0.00075  -0.00075   2.11643
   A19        2.07796   0.00001   0.00000   0.00074   0.00074   2.07870
   A20        2.14971   0.00014   0.00000   0.00034   0.00034   2.15004
   A21        2.04098  -0.00011   0.00000  -0.00023  -0.00023   2.04075
   A22        2.09250  -0.00003   0.00000  -0.00011  -0.00011   2.09239
   A23        2.15910   0.00017   0.00000   0.00019   0.00015   2.15925
   A24        2.12886  -0.00007   0.00000  -0.00027  -0.00031   2.12854
   A25        1.99522  -0.00009   0.00000   0.00000  -0.00004   1.99518
   A26        1.93728   0.00001   0.00000  -0.01154  -0.01155   1.92573
   A27        1.89230  -0.00001   0.00000   0.00013   0.00008   1.89238
   A28        1.94860  -0.00003   0.00000   0.01165   0.01164   1.96025
   A29        1.89679   0.00000   0.00000  -0.00611  -0.00617   1.89062
   A30        1.88621  -0.00001   0.00000   0.00146   0.00149   1.88770
   A31        1.90181   0.00004   0.00000   0.00421   0.00416   1.90597
    D1        0.00044   0.00000   0.00000   0.00062   0.00062   0.00106
    D2       -3.14100   0.00000   0.00000   0.00080   0.00080  -3.14020
    D3        0.00369   0.00000   0.00000   0.00540   0.00540   0.00909
    D4       -3.13808   0.00001   0.00000   0.00497   0.00497  -3.13311
    D5       -3.14007  -0.00001   0.00000   0.00124   0.00124  -3.13883
    D6        0.00134  -0.00001   0.00000   0.00081   0.00081   0.00215
    D7       -0.00696   0.00006   0.00000  -0.00976  -0.00976  -0.01672
    D8        3.12973  -0.00008   0.00000  -0.02648  -0.02648   3.10324
    D9        3.13683   0.00007   0.00000  -0.00555  -0.00555   3.13128
   D10       -0.00967  -0.00006   0.00000  -0.02227  -0.02227  -0.03194
   D11        3.14158   0.00000   0.00000  -0.00014  -0.00014   3.14144
   D12       -0.00004   0.00000   0.00000  -0.00011  -0.00011  -0.00016
   D13        0.00017   0.00000   0.00000   0.00029   0.00029   0.00047
   D14       -3.14145   0.00000   0.00000   0.00033   0.00033  -3.14113
   D15       -3.14155   0.00000   0.00000   0.00016   0.00016  -3.14139
   D16        0.00014   0.00000   0.00000   0.00022   0.00022   0.00036
   D17       -0.00014   0.00000   0.00000  -0.00025  -0.00025  -0.00039
   D18        3.14155   0.00000   0.00000  -0.00019  -0.00019   3.14136
   D19       -0.00011   0.00000   0.00000  -0.00015  -0.00015  -0.00026
   D20       -3.14155   0.00000   0.00000   0.00000   0.00000  -3.14155
   D21        3.14152   0.00000   0.00000  -0.00018  -0.00018   3.14133
   D22        0.00008   0.00000   0.00000  -0.00003  -0.00003   0.00004
   D23        0.00003   0.00000   0.00000   0.00007   0.00007   0.00010
   D24       -3.14158   0.00000   0.00000  -0.00003  -0.00003   3.14158
   D25        3.14153   0.00000   0.00000   0.00000   0.00000   3.14153
   D26       -0.00008   0.00000   0.00000  -0.00009  -0.00009  -0.00018
   D27       -3.14143   0.00000   0.00000   0.00015   0.00015  -3.14128
   D28        0.00000   0.00000   0.00000  -0.00004  -0.00004  -0.00004
   D29        0.00000   0.00000   0.00000   0.00000   0.00000   0.00000
   D30        3.14144   0.00000   0.00000  -0.00019  -0.00019   3.14125
   D31        3.14148   0.00000   0.00000  -0.00010  -0.00010   3.14139
   D32        0.00004   0.00000   0.00000   0.00008   0.00008   0.00012
   D33       -0.00009   0.00000   0.00000   0.00000   0.00000  -0.00009
   D34       -3.14154   0.00000   0.00000   0.00018   0.00018  -3.14136
   D35        1.97590  -0.00009   0.00000  -0.22918  -0.22914   1.74675
   D36       -0.10629  -0.00009   0.00000  -0.21487  -0.21487  -0.32116
   D37       -2.20153  -0.00011   0.00000  -0.22733  -0.22736  -2.42888
   D38       -1.16089   0.00004   0.00000  -0.21278  -0.21275  -1.37364
   D39        3.04011   0.00005   0.00000  -0.19847  -0.19848   2.84164
   D40        0.94488   0.00002   0.00000  -0.21093  -0.21096   0.73391
         Item               Value     Threshold  Converged?
 Maximum Force            0.000199     0.000450     YES
 RMS     Force            0.000064     0.000300     YES
 Maximum Displacement     0.342761     0.001800     NO 
 RMS     Displacement     0.073649     0.001200     NO 
 Predicted change in Energy=-9.026027D-05
 GradGradGradGradGradGradGradGradGradGradGradGradGradGradGradGradGradGrad

                          Input orientation:                          
 ---------------------------------------------------------------------
 Center     Atomic      Atomic             Coordinates (Angstroms)
 Number     Number       Type             X           Y           Z
 ---------------------------------------------------------------------
      1          8           0        3.921897    0.378008   -0.012003
      2          8           0       -2.619505    1.378782   -0.020922
      3          7           0       -1.591382   -0.699986    0.034627
      4          6           0       -0.215389   -0.350864    0.020524
      5          6           0        0.245015    0.976392   -0.016704
      6          6           0        0.721990   -1.401536    0.046291
      7          6           0        1.619406    1.232742   -0.028121
      8          6           0        2.089156   -1.141310    0.034893
      9          6           0        2.541276    0.182326   -0.002574
     10          6           0       -2.692532    0.131379    0.006282
     11          6           0       -4.025966   -0.596974   -0.019259
     12          1           0       -0.471110    1.784499   -0.036097
     13          1           0        0.377543   -2.432431    0.075387
     14          1           0       -1.779196   -1.692610    0.064465
     15          1           0        1.964747    2.263081   -0.056942
     16          1           0        2.814643   -1.945465    0.054606
     17          1           0       -4.241919   -0.961749   -1.031385
     18          1           0       -4.808491    0.106673    0.265740
     19          1           0       -4.045281   -1.453724    0.663906
     20          1           0        4.149698    1.326968   -0.037315
 ---------------------------------------------------------------------
                    Distance matrix (angstroms):
                    1          2          3          4          5
     1  O    0.000000
     2  O    6.617520   0.000000
     3  N    5.617873   2.319784   0.000000
     4  C    4.201124   2.961954   1.419663   0.000000
     5  C    3.725258   2.892648   2.487013   1.405335   0.000000
     6  C    3.661909   4.347444   2.417436   1.408280   2.426111
     7  C    2.456073   4.241433   3.748138   2.424180   1.398141
     8  C    2.381063   5.340924   3.706903   2.436378   2.808590
     9  C    1.394451   5.297689   4.225958   2.807851   2.429723
    10  C    6.619050   1.249834   1.380037   2.523688   3.056756
    11  C    8.007445   2.425231   2.437358   3.818724   4.551568
    12  H    4.612733   2.186422   2.726294   2.151366   1.079929
    13  H    4.524229   4.849424   2.622917   2.165063   3.412641
    14  H    6.065951   3.185414   1.010677   2.060996   3.350760
    15  H    2.717711   4.668903   4.629709   3.404659   2.148178
    16  H    2.574679   6.370737   4.578720   3.424179   3.891699
    17  H    8.335585   3.021811   2.868840   4.206261   4.991847
    18  H    8.739018   2.547959   3.324741   4.622344   5.135573
    19  H    8.202928   3.244213   2.643054   4.037117   4.977483
    20  H    0.976247   6.769421   6.088819   4.676799   3.920443
                    6          7          8          9         10
     6  C    0.000000
     7  C    2.783939   0.000000
     8  C    1.391759   2.420900   0.000000
     9  C    2.412635   1.397809   1.399224   0.000000
    10  C    3.743045   4.450505   4.948242   5.234063   0.000000
    11  C    4.816088   5.934490   6.139541   6.613339   1.519605
    12  H    3.403100   2.162118   3.888490   3.412118   2.769353
    13  H    1.087306   3.871231   2.144354   3.394815   4.000407
    14  H    2.518131   4.485170   3.907551   4.710239   2.040712
    15  H    3.870984   1.087055   3.407901   2.159834   5.122343
    16  H    2.162204   3.396533   1.083229   2.146041   5.885965
    17  H    5.098547   6.338569   6.422749   6.955508   2.161546
    18  H    5.736643   6.532400   7.013437   7.355052   2.131951
    19  H    4.807395   6.307510   6.174511   6.819354   2.185167
    20  H    4.381884   2.532062   3.216121   1.974445   6.946037
                   11         12         13         14         15
    11  C    0.000000
    12  H    4.278867   0.000000
    13  H    4.771661   4.302922   0.000000
    14  H    2.501081   3.716381   2.280126   0.000000
    15  H    6.638523   2.482514   4.958282   5.447875   0.000000
    16  H    6.972648   4.971622   2.485362   4.600803   4.294954
    17  H    1.097312   4.769851   4.972653   2.792857   7.061995
    18  H    1.090270   4.660374   5.777390   3.529103   7.115545
    19  H    1.095951   4.873479   4.567888   2.356171   7.103148
    20  H    8.399009   4.643403   5.326812   6.654321   2.377120
                   16         17         18         19         20
    16  H    0.000000
    17  H    7.207089   0.000000
    18  H    7.897343   1.773432   0.000000
    19  H    6.904464   1.776152   1.782096   0.000000
    20  H    3.535482   8.754749   9.046000   8.682260   0.000000
 Stoichiometry    C8H9NO2
 Framework group  C1[X(C8H9NO2)]
 Deg. of freedom    54
 Full point group                 C1      NOp   1
 Largest Abelian subgroup         C1      NOp   1
 Largest concise Abelian subgroup C1      NOp   1
                         Standard orientation:                         
 ---------------------------------------------------------------------
 Center     Atomic      Atomic             Coordinates (Angstroms)
 Number     Number       Type             X           Y           Z
 ---------------------------------------------------------------------
      1          8           0        3.995543   -0.238675    0.012476
      2          8           0       -2.508145   -1.460512   -0.014238
      3          7           0       -1.551087    0.652642   -0.018067
      4          6           0       -0.164056    0.350121   -0.009900
      5          6           0        0.341077   -0.961279   -0.003712
      6          6           0        0.737162    1.432276   -0.008785
      7          6           0        1.723362   -1.171099    0.003991
      8          6           0        2.112358    1.218339   -0.001207
      9          6           0        2.609088   -0.089730    0.005293
     10          6           0       -2.623424   -0.216009   -0.011634
     11          6           0       -3.980826    0.465906    0.029009
     12          1           0       -0.347237   -1.793427   -0.004987
     13          1           0        0.357967    2.451305   -0.013749
     14          1           0       -1.772440    1.638761   -0.024412
     15          1           0        2.103433   -2.189536    0.008696
     16          1           0        2.810164    2.046863   -0.000329
     17          1           0       -4.210002    0.798714    1.049210
     18          1           0       -4.738753   -0.256804   -0.274181
     19          1           0       -4.028540    1.337685   -0.633436
     20          1           0        4.255384   -1.179703    0.015416
 ---------------------------------------------------------------------
 Rotational constants (GHZ):      3.5582203      0.5410450      0.4710488
 Standard basis: 6-31G (6D, 7F)
 There are   117 symmetry adapted cartesian basis functions of A   symmetry.
 There are   117 symmetry adapted basis functions of A   symmetry.
   117 basis functions,   278 primitive gaussians,   117 cartesian basis functions
    40 alpha electrons       40 beta electrons
       nuclear repulsion energy       567.9529061842 Hartrees.
 NAtoms=   20 NActive=   20 NUniq=   20 SFac= 1.00D+00 NAtFMM=   60 NAOKFM=F Big=F
 Integral buffers will be    262144 words long.
 Raffenetti 2 integral format.
 Two-electron integral symmetry is turned on.
 One-electron integrals computed using PRISM.
 NBasis=   117 RedAO= T EigKep=  5.94D-04  NBF=   117
 NBsUse=   117 1.00D-06 EigRej= -1.00D+00 NBFU=   117
 Initial guess from the checkpoint file:  "E:\Research\Paracetamol Project\paracetamol_opt_freq.chk"
 B after Tr=     0.000000    0.000000    0.000000
         Rot=    0.999993   -0.003829    0.000208    0.000010 Ang=  -0.44 deg.
 ExpMin= 1.61D-01 ExpMax= 5.48D+03 ExpMxC= 8.25D+02 IAcc=1 IRadAn=         1 AccDes= 0.00D+00
 Harris functional with IExCor=  402 and IRadAn=       1 diagonalized for initial guess.
 HarFok:  IExCor=  402 AccDes= 0.00D+00 IRadAn=         1 IDoV= 1 UseB2=F ITyADJ=14
 ICtDFT=  3500011 ScaDFX=  1.000000  1.000000  1.000000  1.000000
 FoFCou: FMM=F IPFlag=           0 FMFlag=      100000 FMFlg1=           0
         NFxFlg=           0 DoJE=T BraDBF=F KetDBF=T FulRan=T
         wScrn=  0.000000 ICntrl=     500 IOpCl=  0 I1Cent=   200000004 NGrid=           0
         NMat0=    1 NMatS0=      1 NMatT0=    0 NMatD0=    1 NMtDS0=    0 NMtDT0=    0
 Petite list used in FoFCou.
 Keep R1 ints in memory in canonical form, NReq=24825568.
 Requested convergence on RMS density matrix=1.00D-08 within 128 cycles.
 Requested convergence on MAX density matrix=1.00D-06.
 Requested convergence on             energy=1.00D-06.
 No special actions if energy rises.
 Integral accuracy reduced to 1.0D-05 until final iterations.
 Initial convergence to 1.0D-05 achieved.  Increase integral accuracy.
 SCF Done:  E(RB3LYP) =  -515.339472602     A.U. after   12 cycles
            NFock= 12  Conv=0.69D-08     -V/T= 2.0056
 Calling FoFJK, ICntrl=      2127 FMM=F ISym2X=0 I1Cent= 0 IOpClX= 0 NMat=1 NMatS=1 NMatT=0.
 ***** Axes restored to original set *****
 -------------------------------------------------------------------
 Center     Atomic                   Forces (Hartrees/Bohr)
 Number     Number              X              Y              Z
 -------------------------------------------------------------------
      1        8           0.000016984   -0.000003986   -0.000000605
      2        8          -0.000266580    0.000154593   -0.000180246
      3        7          -0.000325561    0.000252451    0.000023575
      4        6           0.000393403    0.000050814    0.000094304
      5        6          -0.000418530   -0.000282597   -0.000049735
      6        6          -0.000135099   -0.000020235    0.000020642
      7        6           0.000145884    0.000154440   -0.000016976
      8        6           0.000153651    0.000189787   -0.000010948
      9        6          -0.000008843   -0.000246501    0.000031575
     10        6           0.000361914   -0.000897466    0.000153830
     11        6           0.000343993    0.000278890   -0.000043697
     12        1           0.000139312    0.000073468    0.000023404
     13        1          -0.000011095    0.000078393   -0.000003085
     14        1          -0.000011721    0.000126446   -0.000074124
     15        1          -0.000050131   -0.000034352    0.000000684
     16        1           0.000086725    0.000031556   -0.000007360
     17        1          -0.000119682    0.000113163    0.000060719
     18        1          -0.000234580   -0.000070641    0.000070458
     19        1          -0.000069189    0.000055518   -0.000086578
     20        1           0.000009143   -0.000003740   -0.000005837
 -------------------------------------------------------------------
 Cartesian Forces:  Max     0.000897466 RMS     0.000193339

 GradGradGradGradGradGradGradGradGradGradGradGradGradGradGradGradGradGrad
 Berny optimization.
 Using GEDIIS/GDIIS optimizer.
 FormGI is forming the generalized inverse of G from B-inverse, IUseBI=4.
 GSVD:  received Info=                   1 from GESDD.
 Internal  Forces:  Max     0.000541136 RMS     0.000114504
 Search for a local minimum.
 Step number  18 out of a maximum of  101
 All quantities printed in internal units (Hartrees-Bohrs-Radians)
 Mixed Optimization -- En-DIIS/RFO-DIIS
 Swapping is turned off.
 Update second derivatives using D2CorX and points   10   13   15   17   18
 ITU=  0  0  0  0  0  0  0 -1  1  0  0 -1  0  1  1  1  1  0
     Eigenvalues ---   -0.00020   0.00848   0.01649   0.01711   0.02026
     Eigenvalues ---    0.02146   0.02153   0.02156   0.02157   0.02157
     Eigenvalues ---    0.02157   0.02159   0.02163   0.02192   0.03286
     Eigenvalues ---    0.06238   0.07415   0.07551   0.12593   0.13421
     Eigenvalues ---    0.15619   0.16007   0.16025   0.16192   0.16276
     Eigenvalues ---    0.17595   0.18031   0.19099   0.22249   0.22953
     Eigenvalues ---    0.24521   0.25669   0.26363   0.30560   0.33323
     Eigenvalues ---    0.34314   0.34430   0.34633   0.35159   0.35187
     Eigenvalues ---    0.35408   0.35521   0.38618   0.41626   0.42552
     Eigenvalues ---    0.44408   0.45161   0.45570   0.46955   0.47836
     Eigenvalues ---    0.52311   0.52719   0.53892   0.84917
 Use linear search instead of GDIIS.
 RFO step:  Lambda=-3.14276632D-04 EMin=-1.99042972D-04
 Skip linear search -- no minimum in search direction.
 Iteration  1 RMS(Cart)=  0.06786170 RMS(Int)=  0.04689512
 Iteration  2 RMS(Cart)=  0.06116865 RMS(Int)=  0.00466628
 Iteration  3 RMS(Cart)=  0.00482570 RMS(Int)=  0.00005517
 Iteration  4 RMS(Cart)=  0.00002261 RMS(Int)=  0.00005235
 Iteration  5 RMS(Cart)=  0.00000000 RMS(Int)=  0.00005235
 Variable       Old X    -DE/DX   Delta X   Delta X   Delta X     New X
                                 (Linear)    (Quad)   (Total)
    R1        2.63513   0.00003   0.00000   0.00503   0.00503   2.64016
    R2        1.84484  -0.00001   0.00000   0.00137   0.00137   1.84621
    R3        2.36184   0.00015   0.00000   0.00728   0.00728   2.36912
    R4        2.68277   0.00030   0.00000   0.01003   0.01003   2.69280
    R5        2.60789  -0.00022   0.00000  -0.00969  -0.00969   2.59820
    R6        1.90990  -0.00013   0.00000  -0.00115  -0.00115   1.90875
    R7        2.65570  -0.00017   0.00000  -0.00987  -0.00987   2.64583
    R8        2.66126  -0.00001   0.00000   0.00374   0.00374   2.66500
    R9        2.64210   0.00018   0.00000   0.01049   0.01048   2.65259
   R10        2.04077  -0.00004   0.00000  -0.00090  -0.00090   2.03987
   R11        2.63004   0.00018   0.00000  -0.00004  -0.00004   2.63000
   R12        2.05471  -0.00007   0.00000  -0.00188  -0.00188   2.05283
   R13        2.64148   0.00008   0.00000  -0.00500  -0.00500   2.63648
   R14        2.05424  -0.00005   0.00000  -0.00166  -0.00166   2.05258
   R15        2.64415  -0.00023   0.00000   0.00131   0.00131   2.64546
   R16        2.04701   0.00004   0.00000   0.00058   0.00058   2.04759
   R17        2.87164  -0.00012   0.00000  -0.00504  -0.00504   2.86660
   R18        2.07362  -0.00007   0.00000   0.00129   0.00129   2.07491
   R19        2.06031   0.00014   0.00000   0.00107   0.00107   2.06138
   R20        2.07105  -0.00010   0.00000  -0.00180  -0.00180   2.06924
    A1        1.94724   0.00002   0.00000   0.00414   0.00414   1.95137
    A2        2.24595   0.00023   0.00000   0.00850   0.00847   2.25442
    A3        2.00637  -0.00008   0.00000  -0.00359  -0.00362   2.00275
    A4        2.03085  -0.00015   0.00000  -0.00498  -0.00500   2.02584
    A5        2.15322   0.00000   0.00000  -0.00299  -0.00300   2.15023
    A6        2.05047   0.00003   0.00000   0.00157   0.00157   2.05204
    A7        2.07949  -0.00003   0.00000   0.00142   0.00142   2.08091
    A8        2.08912  -0.00001   0.00000   0.00009   0.00009   2.08921
    A9        2.08283   0.00016   0.00000   0.00956   0.00956   2.09239
   A10        2.11123  -0.00015   0.00000  -0.00965  -0.00965   2.10159
   A11        2.11088   0.00004   0.00000  -0.00094  -0.00094   2.10994
   A12        2.09092  -0.00006   0.00000  -0.00525  -0.00525   2.08567
   A13        2.08138   0.00002   0.00000   0.00619   0.00619   2.08757
   A14        2.10642   0.00001   0.00000  -0.00137  -0.00137   2.10505
   A15        2.07863  -0.00004   0.00000  -0.00273  -0.00273   2.07591
   A16        2.09813   0.00003   0.00000   0.00410   0.00410   2.10223
   A17        2.08806   0.00000   0.00000  -0.00011  -0.00011   2.08795
   A18        2.11643   0.00009   0.00000   0.01193   0.01192   2.12835
   A19        2.07870  -0.00008   0.00000  -0.01181  -0.01181   2.06688
   A20        2.15004   0.00005   0.00000  -0.00034  -0.00034   2.14970
   A21        2.04075  -0.00003   0.00000  -0.00057  -0.00057   2.04018
   A22        2.09239  -0.00002   0.00000   0.00091   0.00091   2.09330
   A23        2.15925   0.00012   0.00000   0.00116   0.00113   2.16038
   A24        2.12854  -0.00054   0.00000  -0.01844  -0.01846   2.11008
   A25        1.99518   0.00043   0.00000   0.01702   0.01699   2.01217
   A26        1.92573   0.00006   0.00000  -0.01431  -0.01429   1.91144
   A27        1.89238   0.00024   0.00000   0.00580   0.00559   1.89798
   A28        1.96025   0.00006   0.00000   0.02707   0.02694   1.98719
   A29        1.89062  -0.00017   0.00000  -0.01610  -0.01616   1.87446
   A30        1.88770  -0.00004   0.00000  -0.00688  -0.00681   1.88089
   A31        1.90597  -0.00016   0.00000   0.00304   0.00273   1.90870
    D1        0.00106   0.00000   0.00000   0.00873   0.00873   0.00979
    D2       -3.14020  -0.00001   0.00000   0.00484   0.00485  -3.13535
    D3        0.00909  -0.00002   0.00000   0.02895   0.02896   0.03805
    D4       -3.13311  -0.00001   0.00000   0.03253   0.03253  -3.10058
    D5       -3.13883  -0.00003   0.00000   0.01482   0.01482  -3.12401
    D6        0.00215  -0.00001   0.00000   0.01840   0.01840   0.02055
    D7       -0.01672   0.00005   0.00000  -0.02832  -0.02827  -0.04499
    D8        3.10324   0.00002   0.00000  -0.04200  -0.04204   3.06120
    D9        3.13128   0.00005   0.00000  -0.01403  -0.01399   3.11729
   D10       -0.03194   0.00002   0.00000  -0.02771  -0.02776  -0.05970
   D11        3.14144   0.00002   0.00000   0.00339   0.00338  -3.13837
   D12       -0.00016   0.00002   0.00000   0.00330   0.00330   0.00314
   D13        0.00047   0.00000   0.00000  -0.00025  -0.00025   0.00022
   D14       -3.14113   0.00001   0.00000  -0.00034  -0.00034  -3.14146
   D15       -3.14139  -0.00002   0.00000  -0.00299  -0.00299   3.13880
   D16        0.00036  -0.00001   0.00000   0.00010   0.00009   0.00045
   D17       -0.00039   0.00000   0.00000   0.00044   0.00044   0.00005
   D18        3.14136   0.00001   0.00000   0.00352   0.00352  -3.13830
   D19       -0.00026   0.00000   0.00000  -0.00061  -0.00061  -0.00087
   D20       -3.14155   0.00000   0.00000  -0.00028  -0.00028   3.14136
   D21        3.14133  -0.00001   0.00000  -0.00052  -0.00052   3.14081
   D22        0.00004  -0.00001   0.00000  -0.00019  -0.00019  -0.00015
   D23        0.00010   0.00000   0.00000   0.00023   0.00023   0.00033
   D24        3.14158   0.00001   0.00000   0.00241   0.00242  -3.13919
   D25        3.14153   0.00000   0.00000  -0.00284  -0.00285   3.13868
   D26       -0.00018   0.00000   0.00000  -0.00066  -0.00066  -0.00084
   D27       -3.14128  -0.00001   0.00000  -0.00271  -0.00271   3.13919
   D28       -0.00004   0.00000   0.00000   0.00128   0.00129   0.00125
   D29        0.00000  -0.00001   0.00000  -0.00305  -0.00305  -0.00304
   D30        3.14125   0.00000   0.00000   0.00095   0.00095  -3.14099
   D31        3.14139   0.00001   0.00000   0.00266   0.00266  -3.13914
   D32        0.00012   0.00000   0.00000  -0.00109  -0.00109  -0.00097
   D33       -0.00009   0.00000   0.00000   0.00053   0.00054   0.00045
   D34       -3.14136  -0.00001   0.00000  -0.00322  -0.00321   3.13861
   D35        1.74675  -0.00010   0.00000  -0.39383  -0.39374   1.35301
   D36       -0.32116  -0.00007   0.00000  -0.36948  -0.36935  -0.69051
   D37       -2.42888  -0.00006   0.00000  -0.39431  -0.39443  -2.82331
   D38       -1.37364  -0.00007   0.00000  -0.38068  -0.38065  -1.75429
   D39        2.84164  -0.00005   0.00000  -0.35633  -0.35627   2.48537
   D40        0.73391  -0.00004   0.00000  -0.38116  -0.38134   0.35257
         Item               Value     Threshold  Converged?
 Maximum Force            0.000541     0.000450     NO 
 RMS     Force            0.000115     0.000300     YES
 Maximum Displacement     0.621746     0.001800     NO 
 RMS     Displacement     0.125528     0.001200     NO 
 Predicted change in Energy=-2.678779D-04
 GradGradGradGradGradGradGradGradGradGradGradGradGradGradGradGradGradGrad

                          Input orientation:                          
 ---------------------------------------------------------------------
 Center     Atomic      Atomic             Coordinates (Angstroms)
 Number     Number       Type             X           Y           Z
 ---------------------------------------------------------------------
      1          8           0        3.928548    0.378436   -0.031784
      2          8           0       -2.633276    1.368164   -0.076219
      3          7           0       -1.592323   -0.698372    0.081149
      4          6           0       -0.210761   -0.350598    0.051571
      5          6           0        0.245644    0.970466   -0.030871
      6          6           0        0.728210   -1.401440    0.105311
      7          6           0        1.624970    1.229330   -0.059019
      8          6           0        2.094982   -1.140505    0.077478
      9          6           0        2.545526    0.182387   -0.004561
     10          6           0       -2.695345    0.118229   -0.001788
     11          6           0       -4.031024   -0.599441   -0.046716
     12          1           0       -0.463781    1.782996   -0.072455
     13          1           0        0.378967   -2.428275    0.166226
     14          1           0       -1.777634   -1.688308    0.158108
     15          1           0        1.965344    2.258791   -0.123345
     16          1           0        2.831154   -1.934639    0.115633
     17          1           0       -4.391100   -0.639772   -1.083204
     18          1           0       -4.757558   -0.024288    0.528841
     19          1           0       -3.995712   -1.625182    0.334892
     20          1           0        4.159769    1.326222   -0.083845
 ---------------------------------------------------------------------
                    Distance matrix (angstroms):
                    1          2          3          4          5
     1  O    0.000000
     2  O    6.636195   0.000000
     3  N    5.626037   2.319249   0.000000
     4  C    4.203845   2.973055   1.424969   0.000000
     5  C    3.730186   2.906614   2.485094   1.400111   0.000000
     6  C    3.664549   4.359272   2.424822   1.410257   2.424326
     7  C    2.455858   4.260543   3.753219   2.424522   1.403689
     8  C    2.383502   5.354762   3.713720   2.437432   2.808557
     9  C    1.397114   5.313304   4.231415   2.807906   2.431300
    10  C    6.629070   1.253686   1.374908   2.528993   3.062119
    11  C    8.019430   2.413719   2.444053   3.829620   4.555738
    12  H    4.611616   2.208803   2.730272   2.152120   1.079452
    13  H    4.529499   4.852354   2.624079   2.162792   3.407061
    14  H    6.071903   3.182618   1.010068   2.062986   3.346409
    15  H    2.719980   4.684309   4.630726   3.402196   2.150744
    16  H    2.564434   6.387904   4.593114   3.430239   3.891782
    17  H    8.447412   2.852327   3.031881   4.341263   5.019926
    18  H    8.713491   2.611052   3.267036   4.583408   5.131748
    19  H    8.181860   3.314417   2.588366   4.003834   4.986008
    20  H    0.976971   6.793179   6.100227   4.683118   3.930616
                    6          7          8          9         10
     6  C    0.000000
     7  C    2.784266   0.000000
     8  C    1.391736   2.419847   0.000000
     9  C    2.413134   1.395163   1.399915   0.000000
    10  C    3.747212   4.461271   4.953578   5.241265   0.000000
    11  C    4.828728   5.944309   6.151108   6.622993   1.516940
    12  H    3.404861   2.160927   3.888008   3.409177   2.785017
    13  H    1.086310   3.870573   2.147309   3.396866   3.995536
    14  H    2.522763   4.487479   3.912001   4.713350   2.032569
    15  H    3.870411   1.086178   3.407689   2.159207   5.130186
    16  H    2.169512   3.390588   1.083538   2.139586   5.896631
    17  H    5.310371   6.382444   6.608114   7.067969   2.149327
    18  H    5.671823   6.530987   6.957512   7.325453   2.134151
    19  H    4.734786   6.316286   6.115368   6.794875   2.200861
    20  H    4.387656   2.536772   3.220887   1.980007   6.961219
                   11         12         13         14         15
    11  C    0.000000
    12  H    4.289742   0.000000
    13  H    4.778911   4.301394   0.000000
    14  H    2.511045   3.718779   2.280031   0.000000
    15  H    6.643176   2.475807   4.956716   5.446898   0.000000
    16  H    6.992753   4.971196   2.501891   4.615562   4.288542
    17  H    1.097992   4.723901   5.245317   3.077415   7.051764
    18  H    1.090834   4.697270   5.682827   3.433126   7.129881
    19  H    1.094996   4.925052   4.450979   2.226007   7.129475
    20  H    8.414193   4.646073   5.334159   6.663234   2.384690
                   16         17         18         19         20
    16  H    0.000000
    17  H    7.434705   0.000000
    18  H    7.836372   1.764029   0.000000
    19  H    6.837392   1.771542   1.783504   0.000000
    20  H    3.526787   8.830697   9.039800   8.683202   0.000000
 Stoichiometry    C8H9NO2
 Framework group  C1[X(C8H9NO2)]
 Deg. of freedom    54
 Full point group                 C1      NOp   1
 Largest Abelian subgroup         C1      NOp   1
 Largest concise Abelian subgroup C1      NOp   1
                         Standard orientation:                         
 ---------------------------------------------------------------------
 Center     Atomic      Atomic             Coordinates (Angstroms)
 Number     Number       Type             X           Y           Z
 ---------------------------------------------------------------------
      1          8           0        4.001721   -0.241812    0.034761
      2          8           0       -2.522449   -1.455014   -0.014431
      3          7           0       -1.552365    0.651358   -0.046844
      4          6           0       -0.159812    0.349638   -0.029612
      5          6           0        0.341296   -0.957697   -0.020759
      6          6           0        0.742783    1.433152   -0.017570
      7          6           0        1.728572   -1.170700    0.000146
      8          6           0        2.117586    1.217673    0.002831
      9          6           0        2.612900   -0.091662    0.011144
     10          6           0       -2.627047   -0.205702   -0.017177
     11          6           0       -3.986689    0.462347    0.061509
     12          1           0       -0.340013   -1.794925   -0.029947
     13          1           0        0.358778    2.449319   -0.021260
     14          1           0       -1.771213    1.637211   -0.067758
     15          1           0        2.103792   -2.189986    0.007041
     16          1           0        2.826243    2.037259    0.014534
     17          1           0       -4.351676    0.430553    1.096574
     18          1           0       -4.691002   -0.103020   -0.550228
     19          1           0       -3.985171    1.509000   -0.260256
     20          1           0        4.265097   -1.182612    0.033501
 ---------------------------------------------------------------------
 Rotational constants (GHZ):      3.5678798      0.5385823      0.4694355
 Standard basis: 6-31G (6D, 7F)
 There are   117 symmetry adapted cartesian basis functions of A   symmetry.
 There are   117 symmetry adapted basis functions of A   symmetry.
   117 basis functions,   278 primitive gaussians,   117 cartesian basis functions
    40 alpha electrons       40 beta electrons
       nuclear repulsion energy       567.4493358090 Hartrees.
 NAtoms=   20 NActive=   20 NUniq=   20 SFac= 1.00D+00 NAtFMM=   60 NAOKFM=F Big=F
 Integral buffers will be    262144 words long.
 Raffenetti 2 integral format.
 Two-electron integral symmetry is turned on.
 One-electron integrals computed using PRISM.
 NBasis=   117 RedAO= T EigKep=  5.94D-04  NBF=   117
 NBsUse=   117 1.00D-06 EigRej= -1.00D+00 NBFU=   117
 Initial guess from the checkpoint file:  "E:\Research\Paracetamol Project\paracetamol_opt_freq.chk"
 B after Tr=     0.000000    0.000000    0.000000
         Rot=    0.999979   -0.006414    0.000370    0.000287 Ang=  -0.74 deg.
 ExpMin= 1.61D-01 ExpMax= 5.48D+03 ExpMxC= 8.25D+02 IAcc=1 IRadAn=         1 AccDes= 0.00D+00
 Harris functional with IExCor=  402 and IRadAn=       1 diagonalized for initial guess.
 HarFok:  IExCor=  402 AccDes= 0.00D+00 IRadAn=         1 IDoV= 1 UseB2=F ITyADJ=14
 ICtDFT=  3500011 ScaDFX=  1.000000  1.000000  1.000000  1.000000
 FoFCou: FMM=F IPFlag=           0 FMFlag=      100000 FMFlg1=           0
         NFxFlg=           0 DoJE=T BraDBF=F KetDBF=T FulRan=T
         wScrn=  0.000000 ICntrl=     500 IOpCl=  0 I1Cent=   200000004 NGrid=           0
         NMat0=    1 NMatS0=      1 NMatT0=    0 NMatD0=    1 NMtDS0=    0 NMtDT0=    0
 Petite list used in FoFCou.
 Keep R1 ints in memory in canonical form, NReq=24825568.
 Requested convergence on RMS density matrix=1.00D-08 within 128 cycles.
 Requested convergence on MAX density matrix=1.00D-06.
 Requested convergence on             energy=1.00D-06.
 No special actions if energy rises.
 Integral accuracy reduced to 1.0D-05 until final iterations.
 Initial convergence to 1.0D-05 achieved.  Increase integral accuracy.
 SCF Done:  E(RB3LYP) =  -515.339412931     A.U. after   14 cycles
            NFock= 14  Conv=0.76D-08     -V/T= 2.0057
 Calling FoFJK, ICntrl=      2127 FMM=F ISym2X=0 I1Cent= 0 IOpClX= 0 NMat=1 NMatS=1 NMatT=0.
 ***** Axes restored to original set *****
 -------------------------------------------------------------------
 Center     Atomic                   Forces (Hartrees/Bohr)
 Number     Number              X              Y              Z
 -------------------------------------------------------------------
      1        8          -0.001316056   -0.000470482    0.000218813
      2        8           0.000745081   -0.003045220    0.000287933
      3        7           0.003740795   -0.003346850    0.000094147
      4        6          -0.003369611   -0.002148868    0.000506552
      5        6           0.005155880    0.003833706   -0.000157519
      6        6          -0.000836616    0.000806441   -0.000046876
      7        6          -0.004625817   -0.000039711    0.000111598
      8        6           0.000744539    0.000500370   -0.000023091
      9        6           0.002158752    0.000393848   -0.000328482
     10        6          -0.000747102    0.006927022   -0.001391577
     11        6          -0.000350788   -0.002197516   -0.001350886
     12        1          -0.000983043   -0.000260481    0.000012310
     13        1           0.000439938   -0.000724960    0.000108292
     14        1           0.000348967   -0.000372489   -0.000332016
     15        1           0.000251508    0.000361012   -0.000031956
     16        1          -0.001073066   -0.000795416    0.000117245
     17        1           0.000595572    0.000721258    0.000604063
     18        1          -0.000462823    0.000122825    0.000739481
     19        1           0.000332839    0.000361116    0.000866206
     20        1          -0.000748948   -0.000625605   -0.000004237
 -------------------------------------------------------------------
 Cartesian Forces:  Max     0.006927022 RMS     0.001772413

 GradGradGradGradGradGradGradGradGradGradGradGradGradGradGradGradGradGrad
 Berny optimization.
 Using GEDIIS/GDIIS optimizer.
 FormGI is forming the generalized inverse of G from B-inverse, IUseBI=4.
 GSVD:  received Info=                   1 from GESDD.
 Internal  Forces:  Max     0.003886370 RMS     0.001015840
 Search for a local minimum.
 Step number  19 out of a maximum of  101
 All quantities printed in internal units (Hartrees-Bohrs-Radians)
 Mixed Optimization -- RFO/linear search
 Update second derivatives using D2CorX and points   10   13   15   17   19
                                                     18
 DE=  5.97D-05 DEPred=-2.68D-04 R=-2.23D-01
 Trust test=-2.23D-01 RLast= 9.35D-01 DXMaxT set to 1.06D-01
 ITU= -1  0  0  0  0  0  0  0 -1  1  0  0 -1  0  1  1  1  1  0
 Use linear search instead of GDIIS.
 Energy rises -- skip Quadratic/GDIIS search.
 Quartic linear search produced a step of -0.55945.
 Iteration  1 RMS(Cart)=  0.06631105 RMS(Int)=  0.00666488
 Iteration  2 RMS(Cart)=  0.00744633 RMS(Int)=  0.00006788
 Iteration  3 RMS(Cart)=  0.00007698 RMS(Int)=  0.00001290
 Iteration  4 RMS(Cart)=  0.00000001 RMS(Int)=  0.00001290
 Variable       Old X    -DE/DX   Delta X   Delta X   Delta X     New X
                                 (Linear)    (Quad)   (Total)
    R1        2.64016  -0.00220  -0.00282   0.00000  -0.00282   2.63735
    R2        1.84621  -0.00079  -0.00077   0.00000  -0.00077   1.84544
    R3        2.36912  -0.00301  -0.00407   0.00000  -0.00407   2.36505
    R4        2.69280  -0.00389  -0.00561   0.00000  -0.00561   2.68719
    R5        2.59820   0.00166   0.00542   0.00000   0.00542   2.60362
    R6        1.90875   0.00027   0.00064   0.00000   0.00064   1.90940
    R7        2.64583   0.00272   0.00552   0.00000   0.00552   2.65135
    R8        2.66500  -0.00130  -0.00209   0.00000  -0.00209   2.66291
    R9        2.65259  -0.00355  -0.00587   0.00000  -0.00587   2.64672
   R10        2.03987   0.00045   0.00050   0.00000   0.00050   2.04037
   R11        2.63000  -0.00111   0.00002   0.00000   0.00002   2.63002
   R12        2.05283   0.00055   0.00105   0.00000   0.00105   2.05388
   R13        2.63648   0.00158   0.00280   0.00000   0.00280   2.63927
   R14        2.05258   0.00042   0.00093   0.00000   0.00093   2.05351
   R15        2.64546   0.00026  -0.00073   0.00000  -0.00073   2.64472
   R16        2.04759  -0.00014  -0.00033   0.00000  -0.00033   2.04726
   R17        2.86660   0.00034   0.00282   0.00000   0.00282   2.86942
   R18        2.07491  -0.00079  -0.00072   0.00000  -0.00072   2.07419
   R19        2.06138   0.00077  -0.00060   0.00000  -0.00060   2.06078
   R20        2.06924  -0.00003   0.00101   0.00000   0.00101   2.07025
    A1        1.95137  -0.00106  -0.00231   0.00000  -0.00231   1.94906
    A2        2.25442  -0.00312  -0.00474   0.00000  -0.00473   2.24969
    A3        2.00275   0.00118   0.00202   0.00000   0.00203   2.00478
    A4        2.02584   0.00194   0.00280   0.00000   0.00280   2.02865
    A5        2.15023  -0.00014   0.00168   0.00000   0.00168   2.15190
    A6        2.05204  -0.00056  -0.00088   0.00000  -0.00088   2.05116
    A7        2.08091   0.00070  -0.00079   0.00000  -0.00079   2.08012
    A8        2.08921  -0.00031  -0.00005   0.00000  -0.00005   2.08916
    A9        2.09239  -0.00077  -0.00535   0.00000  -0.00535   2.08704
   A10        2.10159   0.00108   0.00540   0.00000   0.00540   2.10698
   A11        2.10994  -0.00042   0.00053   0.00000   0.00053   2.11047
   A12        2.08567   0.00088   0.00294   0.00000   0.00294   2.08861
   A13        2.08757  -0.00045  -0.00346   0.00000  -0.00346   2.08411
   A14        2.10505  -0.00029   0.00077   0.00000   0.00077   2.10581
   A15        2.07591   0.00028   0.00153   0.00000   0.00153   2.07743
   A16        2.10223   0.00001  -0.00229   0.00000  -0.00229   2.09994
   A17        2.08795  -0.00006   0.00006   0.00000   0.00006   2.08801
   A18        2.12835  -0.00134  -0.00667   0.00000  -0.00667   2.12168
   A19        2.06688   0.00140   0.00661   0.00000   0.00661   2.07349
   A20        2.14970   0.00035   0.00019   0.00000   0.00019   2.14989
   A21        2.04018  -0.00074   0.00032   0.00000   0.00032   2.04050
   A22        2.09330   0.00039  -0.00051   0.00000  -0.00051   2.09279
   A23        2.16038  -0.00034  -0.00063   0.00000  -0.00063   2.15976
   A24        2.11008   0.00182   0.01033   0.00000   0.01033   2.12042
   A25        2.01217  -0.00146  -0.00951   0.00000  -0.00950   2.00267
   A26        1.91144  -0.00064   0.00800   0.00000   0.00799   1.91943
   A27        1.89798   0.00019  -0.00313   0.00000  -0.00308   1.89490
   A28        1.98719  -0.00063  -0.01507   0.00000  -0.01504   1.97215
   A29        1.87446   0.00028   0.00904   0.00000   0.00906   1.88352
   A30        1.88089   0.00105   0.00381   0.00000   0.00379   1.88468
   A31        1.90870  -0.00020  -0.00153   0.00000  -0.00145   1.90725
    D1        0.00979  -0.00009  -0.00488   0.00000  -0.00488   0.00490
    D2       -3.13535   0.00001  -0.00271   0.00000  -0.00271  -3.13807
    D3        0.03805  -0.00014  -0.01620   0.00000  -0.01620   0.02185
    D4       -3.10058  -0.00021  -0.01820   0.00000  -0.01820  -3.11878
    D5       -3.12401   0.00007  -0.00829   0.00000  -0.00829  -3.13230
    D6        0.02055  -0.00001  -0.01029   0.00000  -0.01029   0.01025
    D7       -0.04499   0.00032   0.01582   0.00000   0.01580  -0.02919
    D8        3.06120   0.00078   0.02352   0.00000   0.02353   3.08473
    D9        3.11729   0.00012   0.00782   0.00000   0.00781   3.12511
   D10       -0.05970   0.00058   0.01553   0.00000   0.01554  -0.04416
   D11       -3.13837  -0.00004  -0.00189   0.00000  -0.00189  -3.14026
   D12        0.00314  -0.00005  -0.00184   0.00000  -0.00184   0.00129
   D13        0.00022   0.00004   0.00014   0.00000   0.00014   0.00036
   D14       -3.14146   0.00003   0.00019   0.00000   0.00019  -3.14127
   D15        3.13880   0.00006   0.00167   0.00000   0.00167   3.14047
   D16        0.00045   0.00000  -0.00005   0.00000  -0.00005   0.00040
   D17        0.00005  -0.00001  -0.00025   0.00000  -0.00025  -0.00020
   D18       -3.13830  -0.00008  -0.00197   0.00000  -0.00197  -3.14027
   D19       -0.00087  -0.00002   0.00034   0.00000   0.00034  -0.00053
   D20        3.14136   0.00000   0.00015   0.00000   0.00015   3.14151
   D21        3.14081  -0.00001   0.00029   0.00000   0.00029   3.14111
   D22       -0.00015   0.00001   0.00011   0.00000   0.00011  -0.00004
   D23        0.00033  -0.00003  -0.00013   0.00000  -0.00013   0.00020
   D24       -3.13919  -0.00006  -0.00136   0.00000  -0.00136  -3.14055
   D25        3.13868   0.00004   0.00160   0.00000   0.00160   3.14028
   D26       -0.00084   0.00000   0.00037   0.00000   0.00037  -0.00047
   D27        3.13919   0.00008   0.00152   0.00000   0.00152   3.14071
   D28        0.00125  -0.00002  -0.00072   0.00000  -0.00072   0.00053
   D29       -0.00304   0.00006   0.00171   0.00000   0.00171  -0.00134
   D30       -3.14099  -0.00004  -0.00053   0.00000  -0.00053  -3.14152
   D31       -3.13914  -0.00005  -0.00149   0.00000  -0.00149  -3.14062
   D32       -0.00097   0.00004   0.00061   0.00000   0.00061  -0.00036
   D33        0.00045  -0.00002  -0.00030   0.00000  -0.00031   0.00014
   D34        3.13861   0.00007   0.00180   0.00000   0.00179   3.14041
   D35        1.35301   0.00007   0.22028   0.00000   0.22026   1.57327
   D36       -0.69051  -0.00002   0.20664   0.00000   0.20660  -0.48391
   D37       -2.82331   0.00052   0.22066   0.00000   0.22069  -2.60262
   D38       -1.75429  -0.00033   0.21296   0.00000   0.21295  -1.54134
   D39        2.48537  -0.00042   0.19931   0.00000   0.19930   2.68467
   D40        0.35257   0.00012   0.21334   0.00000   0.21339   0.56596
         Item               Value     Threshold  Converged?
 Maximum Force            0.003886     0.000450     NO 
 RMS     Force            0.001016     0.000300     NO 
 Maximum Displacement     0.362648     0.001800     NO 
 RMS     Displacement     0.070395     0.001200     NO 
 Predicted change in Energy=-7.658517D-05
 GradGradGradGradGradGradGradGradGradGradGradGradGradGradGradGradGradGrad

                          Input orientation:                          
 ---------------------------------------------------------------------
 Center     Atomic      Atomic             Coordinates (Angstroms)
 Number     Number       Type             X           Y           Z
 ---------------------------------------------------------------------
      1          8           0        3.924862    0.378302   -0.020908
      2          8           0       -2.625499    1.374542   -0.045290
      3          7           0       -1.591792   -0.699495    0.055419
      4          6           0       -0.213341   -0.350903    0.034361
      5          6           0        0.245311    0.973805   -0.023016
      6          6           0        0.724735   -1.401743    0.072507
      7          6           0        1.621884    1.231344   -0.041896
      8          6           0        2.091735   -1.141124    0.053754
      9          6           0        2.543171    0.182358   -0.003533
     10          6           0       -2.693785    0.125801    0.002800
     11          6           0       -4.028467   -0.597463   -0.031067
     12          1           0       -0.467864    1.783944   -0.052182
     13          1           0        0.378168   -2.430966    0.115782
     14          1           0       -1.778519   -1.691202    0.106158
     15          1           0        1.965046    2.261441   -0.086509
     16          1           0        2.821945   -1.940930    0.081725
     17          1           0       -4.307777   -0.820636   -1.068820
     18          1           0       -4.790760    0.060556    0.387445
     19          1           0       -4.018619   -1.540266    0.526797
     20          1           0        4.154166    1.326836   -0.058125
 ---------------------------------------------------------------------
                    Distance matrix (angstroms):
                    1          2          3          4          5
     1  O    0.000000
     2  O    6.625731   0.000000
     3  N    5.621471   2.319552   0.000000
     4  C    4.202323   2.966818   1.422001   0.000000
     5  C    3.727429   2.898729   2.486167   1.403034   0.000000
     6  C    3.663073   4.352666   2.420690   1.409151   2.425325
     7  C    2.455978   4.249798   3.750376   2.424330   1.400585
     8  C    2.382138   5.347025   3.709907   2.436843   2.808576
     9  C    1.395624   5.304544   4.228363   2.807875   2.430418
    10  C    6.623504   1.251531   1.377777   2.526033   3.059095
    11  C    8.012968   2.420191   2.440343   3.823644   4.553473
    12  H    4.612250   2.196143   2.728050   2.151707   1.079719
    13  H    4.526556   4.850757   2.623428   2.164064   3.410188
    14  H    6.068571   3.184195   1.010409   2.061878   3.348856
    15  H    2.718712   4.675617   4.630160   3.403575   2.149309
    16  H    2.570175   6.378333   4.585076   3.426863   3.891747
    17  H    8.385220   2.948980   2.941966   4.266388   5.004431
    18  H    8.730967   2.569470   3.304741   4.609417   5.134638
    19  H    8.190224   3.280880   2.611242   4.017115   4.980356
    20  H    0.976566   6.779845   6.093844   4.679581   3.924922
                    6          7          8          9         10
     6  C    0.000000
     7  C    2.784082   0.000000
     8  C    1.391749   2.420437   0.000000
     9  C    2.412855   1.396644   1.399528   0.000000
    10  C    3.744933   4.455247   4.950646   5.237265   0.000000
    11  C    4.821879   5.938949   6.144887   6.617801   1.518431
    12  H    3.403886   2.161601   3.888289   3.410832   2.776182
    13  H    1.086867   3.870944   2.145659   3.395723   3.998339
    14  H    2.520159   4.486195   3.909502   4.711610   2.037129
    15  H    3.870733   1.086669   3.407810   2.159560   5.125782
    16  H    2.165433   3.393929   1.083365   2.143207   5.890746
    17  H    5.192926   6.358151   6.505124   7.005449   2.156173
    18  H    5.714734   6.532770   6.994578   7.345355   2.132958
    19  H    4.767072   6.310350   6.141621   6.804834   2.192153
    20  H    4.384427   2.534133   3.218223   1.976895   6.952743
                   11         12         13         14         15
    11  C    0.000000
    12  H    4.283624   0.000000
    13  H    4.775115   4.302260   0.000000
    14  H    2.505466   3.717463   2.280053   0.000000
    15  H    6.640678   2.479564   4.957598   5.447457   0.000000
    16  H    6.981817   4.971465   2.492657   4.607302   4.292144
    17  H    1.097612   4.749981   5.094558   2.921575   7.057793
    18  H    1.090519   4.674480   5.744501   3.495908   7.121057
    19  H    1.095530   4.898311   4.504888   2.284243   7.115713
    20  H    8.405899   4.644582   5.330054   6.658250   2.380449
                   16         17         18         19         20
    16  H    0.000000
    17  H    7.308334   0.000000
    18  H    7.877353   1.769315   0.000000
    19  H    6.866727   1.774111   1.782765   0.000000
    20  H    3.531666   8.788493   9.045092   8.680830   0.000000
 Stoichiometry    C8H9NO2
 Framework group  C1[X(C8H9NO2)]
 Deg. of freedom    54
 Full point group                 C1      NOp   1
 Largest Abelian subgroup         C1      NOp   1
 Largest concise Abelian subgroup C1      NOp   1
                         Standard orientation:                         
 ---------------------------------------------------------------------
 Center     Atomic      Atomic             Coordinates (Angstroms)
 Number     Number       Type             X           Y           Z
 ---------------------------------------------------------------------
      1          8           0        3.998311   -0.240057    0.022362
      2          8           0       -2.514381   -1.458169   -0.014415
      3          7           0       -1.551659    0.652096   -0.030839
      4          6           0       -0.162190    0.349919   -0.018645
      5          6           0        0.341165   -0.959693   -0.011272
      6          6           0        0.739653    1.432671   -0.012680
      7          6           0        1.725664   -1.170917    0.002281
      8          6           0        2.114690    1.218051    0.000593
      9          6           0        2.610790   -0.090578    0.007900
     10          6           0       -2.625031   -0.211539   -0.014129
     11          6           0       -3.983625    0.464152    0.043283
     12          1           0       -0.344081   -1.794084   -0.016078
     13          1           0        0.358346    2.450446   -0.017073
     14          1           0       -1.771927    1.638120   -0.043603
     15          1           0        2.103595   -2.189733    0.007965
     16          1           0        2.817310    2.042655    0.006250
     17          1           0       -4.272542    0.637087    1.087970
     18          1           0       -4.722202   -0.202533   -0.403110
     19          1           0       -4.004706    1.427781   -0.477449
     20          1           0        4.259689   -1.180994    0.023439
 ---------------------------------------------------------------------
 Rotational constants (GHZ):      3.5626982      0.5399501      0.4703245
 Standard basis: 6-31G (6D, 7F)
 There are   117 symmetry adapted cartesian basis functions of A   symmetry.
 There are   117 symmetry adapted basis functions of A   symmetry.
   117 basis functions,   278 primitive gaussians,   117 cartesian basis functions
    40 alpha electrons       40 beta electrons
       nuclear repulsion energy       567.7296799877 Hartrees.
 NAtoms=   20 NActive=   20 NUniq=   20 SFac= 1.00D+00 NAtFMM=   60 NAOKFM=F Big=F
 Integral buffers will be    262144 words long.
 Raffenetti 2 integral format.
 Two-electron integral symmetry is turned on.
 One-electron integrals computed using PRISM.
 NBasis=   117 RedAO= T EigKep=  5.94D-04  NBF=   117
 NBsUse=   117 1.00D-06 EigRej= -1.00D+00 NBFU=   117
 Lowest energy guess from the checkpoint file:  "E:\Research\Paracetamol Project\paracetamol_opt_freq.chk"
 B after Tr=     0.000000    0.000000    0.000000
         Rot=    0.999996   -0.002880    0.000166    0.000124 Ang=  -0.33 deg.
 B after Tr=     0.000000    0.000000    0.000000
         Rot=    0.999993    0.003630   -0.000210   -0.000163 Ang=   0.42 deg.
 Keep R1 ints in memory in canonical form, NReq=24825568.
 Requested convergence on RMS density matrix=1.00D-08 within 128 cycles.
 Requested convergence on MAX density matrix=1.00D-06.
 Requested convergence on             energy=1.00D-06.
 No special actions if energy rises.
 Integral accuracy reduced to 1.0D-05 until final iterations.
 Initial convergence to 1.0D-05 achieved.  Increase integral accuracy.
 SCF Done:  E(RB3LYP) =  -515.339520386     A.U. after   10 cycles
            NFock= 10  Conv=0.74D-08     -V/T= 2.0056
 Calling FoFJK, ICntrl=      2127 FMM=F ISym2X=0 I1Cent= 0 IOpClX= 0 NMat=1 NMatS=1 NMatT=0.
 ***** Axes restored to original set *****
 -------------------------------------------------------------------
 Center     Atomic                   Forces (Hartrees/Bohr)
 Number     Number              X              Y              Z
 -------------------------------------------------------------------
      1        8          -0.000577546   -0.000212215    0.000087684
      2        8           0.000216285   -0.001260579   -0.000182319
      3        7           0.001448659   -0.001338671   -0.000019268
      4        6          -0.001272581   -0.000912683    0.000163294
      5        6           0.002051839    0.001519313   -0.000054850
      6        6          -0.000448278    0.000345490    0.000000258
      7        6          -0.001972828    0.000064773    0.000040185
      8        6           0.000415243    0.000324018   -0.000008457
      9        6           0.000951204    0.000042104   -0.000118431
     10        6          -0.000215210    0.002660058    0.000045752
     11        6           0.000160066   -0.001034618   -0.000527908
     12        1          -0.000357275   -0.000076576    0.000004612
     13        1           0.000189231   -0.000275402    0.000038240
     14        1           0.000138297   -0.000074152   -0.000169643
     15        1           0.000082976    0.000139043   -0.000009042
     16        1          -0.000428132   -0.000329418    0.000039416
     17        1           0.000081085    0.000414476    0.000161962
     18        1          -0.000227538    0.000068225    0.000275406
     19        1           0.000089615    0.000215469    0.000243454
     20        1          -0.000325111   -0.000278657   -0.000010346
 -------------------------------------------------------------------
 Cartesian Forces:  Max     0.002660058 RMS     0.000708472

 GradGradGradGradGradGradGradGradGradGradGradGradGradGradGradGradGradGrad
 Berny optimization.
 Using GEDIIS/GDIIS optimizer.
 FormGI is forming the generalized inverse of G from B-inverse, IUseBI=4.
 GSVD:  received Info=                   1 from GESDD.
 Internal  Forces:  Max     0.001560943 RMS     0.000406573
 Search for a local minimum.
 Step number  20 out of a maximum of  101
 All quantities printed in internal units (Hartrees-Bohrs-Radians)
 Mixed Optimization -- En-DIIS/RFO-DIIS
 Update second derivatives using D2CorX and points   19   18   20
 ITU=  0 -1  0  0  0  0  0  0  0 -1  1  0  0 -1  0  1  1  1  1  0
 Use linear search instead of GDIIS.
     Eigenvalues ---    0.00007   0.01270   0.01645   0.01716   0.02041
     Eigenvalues ---    0.02151   0.02154   0.02156   0.02157   0.02157
     Eigenvalues ---    0.02159   0.02161   0.02174   0.02193   0.03451
     Eigenvalues ---    0.07031   0.07434   0.11237   0.13201   0.14935
     Eigenvalues ---    0.15973   0.16021   0.16058   0.16252   0.16376
     Eigenvalues ---    0.17338   0.18073   0.22037   0.22772   0.23241
     Eigenvalues ---    0.25259   0.26422   0.27095   0.30994   0.33864
     Eigenvalues ---    0.34447   0.34507   0.35142   0.35160   0.35202
     Eigenvalues ---    0.35519   0.37353   0.38433   0.42078   0.42603
     Eigenvalues ---    0.44381   0.45298   0.46669   0.46953   0.50537
     Eigenvalues ---    0.51886   0.52698   0.54412   0.84403
 RFO step:  Lambda=-1.49678166D-04 EMin= 6.80968780D-05
 Quartic linear search produced a step of  0.00908.
 Iteration  1 RMS(Cart)=  0.06910736 RMS(Int)=  0.02023185
 Iteration  2 RMS(Cart)=  0.02548760 RMS(Int)=  0.00081525
 Iteration  3 RMS(Cart)=  0.00085156 RMS(Int)=  0.00002002
 Iteration  4 RMS(Cart)=  0.00000079 RMS(Int)=  0.00002001
 Variable       Old X    -DE/DX   Delta X   Delta X   Delta X     New X
                                 (Linear)    (Quad)   (Total)
    R1        2.63735  -0.00096   0.00002  -0.00204  -0.00202   2.63533
    R2        1.84544  -0.00035   0.00001  -0.00051  -0.00050   1.84494
    R3        2.36505  -0.00124   0.00003  -0.00240  -0.00237   2.36268
    R4        2.68719  -0.00156   0.00004  -0.00353  -0.00349   2.68370
    R5        2.60362   0.00057  -0.00004   0.00092   0.00088   2.60450
    R6        1.90940   0.00004   0.00000  -0.00055  -0.00055   1.90885
    R7        2.65135   0.00109  -0.00004   0.00307   0.00303   2.65438
    R8        2.66291  -0.00058   0.00001  -0.00155  -0.00154   2.66137
    R9        2.64672  -0.00148   0.00004  -0.00372  -0.00367   2.64305
   R10        2.04037   0.00018   0.00000   0.00088   0.00088   2.04125
   R11        2.63002  -0.00039   0.00000   0.00085   0.00085   2.63087
   R12        2.05388   0.00020  -0.00001   0.00035   0.00034   2.05422
   R13        2.63927   0.00074  -0.00002   0.00271   0.00269   2.64197
   R14        2.05351   0.00016  -0.00001   0.00042   0.00041   2.05392
   R15        2.64472  -0.00002   0.00001  -0.00173  -0.00173   2.64300
   R16        2.04726  -0.00004   0.00000   0.00002   0.00003   2.04729
   R17        2.86942   0.00006  -0.00002  -0.00019  -0.00021   2.86921
   R18        2.07419  -0.00026   0.00001  -0.00045  -0.00045   2.07374
   R19        2.06078   0.00031   0.00000   0.00176   0.00176   2.06254
   R20        2.07025  -0.00007  -0.00001  -0.00250  -0.00251   2.06774
    A1        1.94906  -0.00046   0.00002  -0.00237  -0.00235   1.94671
    A2        2.24969  -0.00124   0.00003  -0.00337  -0.00334   2.24635
    A3        2.00478   0.00048  -0.00001   0.00169   0.00168   2.00646
    A4        2.02865   0.00076  -0.00002   0.00166   0.00164   2.03029
    A5        2.15190  -0.00006  -0.00001  -0.00139  -0.00140   2.15050
    A6        2.05116  -0.00024   0.00001   0.00118   0.00119   2.05235
    A7        2.08012   0.00030   0.00001   0.00021   0.00022   2.08033
    A8        2.08916  -0.00014   0.00000  -0.00071  -0.00071   2.08845
    A9        2.08704  -0.00025   0.00004  -0.00173  -0.00169   2.08535
   A10        2.10698   0.00039  -0.00004   0.00244   0.00240   2.10938
   A11        2.11047  -0.00016   0.00000   0.00036   0.00036   2.11083
   A12        2.08861   0.00035  -0.00002   0.00159   0.00157   2.09018
   A13        2.08411  -0.00019   0.00002  -0.00195  -0.00193   2.08218
   A14        2.10581  -0.00012  -0.00001   0.00046   0.00045   2.10626
   A15        2.07743   0.00010  -0.00001   0.00098   0.00097   2.07840
   A16        2.09994   0.00002   0.00002  -0.00144  -0.00142   2.09852
   A17        2.08801  -0.00003   0.00000  -0.00062  -0.00062   2.08739
   A18        2.12168  -0.00054   0.00005  -0.00283  -0.00278   2.11889
   A19        2.07349   0.00057  -0.00005   0.00345   0.00341   2.07690
   A20        2.14989   0.00019   0.00000  -0.00112  -0.00112   2.14877
   A21        2.04050  -0.00035   0.00000   0.00082   0.00081   2.04131
   A22        2.09279   0.00016   0.00000   0.00031   0.00031   2.09311
   A23        2.15976  -0.00008   0.00000  -0.00035  -0.00041   2.15935
   A24        2.12042   0.00058  -0.00007  -0.00200  -0.00214   2.11828
   A25        2.00267  -0.00050   0.00007   0.00186   0.00187   2.00454
   A26        1.91943  -0.00018  -0.00006  -0.01364  -0.01370   1.90573
   A27        1.89490   0.00008   0.00002   0.00341   0.00336   1.89826
   A28        1.97215  -0.00021   0.00011   0.01417   0.01425   1.98640
   A29        1.88352   0.00002  -0.00006  -0.01089  -0.01100   1.87252
   A30        1.88468   0.00040  -0.00003   0.00532   0.00533   1.89001
   A31        1.90725  -0.00010   0.00001   0.00049   0.00041   1.90766
    D1        0.00490  -0.00004   0.00003  -0.00209  -0.00205   0.00285
    D2       -3.13807   0.00000   0.00002  -0.00101  -0.00100  -3.13906
    D3        0.02185  -0.00007   0.00012  -0.00390  -0.00378   0.01807
    D4       -3.11878  -0.00011   0.00013  -0.00381  -0.00368  -3.12246
    D5       -3.13230   0.00000   0.00006  -0.00585  -0.00579  -3.13809
    D6        0.01025  -0.00004   0.00007  -0.00576  -0.00569   0.00457
    D7       -0.02919   0.00018  -0.00011   0.00229   0.00219  -0.02700
    D8        3.08473   0.00022  -0.00017  -0.01790  -0.01807   3.06666
    D9        3.12511   0.00012  -0.00006   0.00427   0.00422   3.12933
   D10       -0.04416   0.00015  -0.00011  -0.01592  -0.01604  -0.06020
   D11       -3.14026  -0.00002   0.00001   0.00110   0.00111  -3.13915
   D12        0.00129  -0.00002   0.00001   0.00198   0.00200   0.00329
   D13        0.00036   0.00001   0.00000   0.00100   0.00100   0.00136
   D14       -3.14127   0.00001   0.00000   0.00189   0.00189  -3.13939
   D15        3.14047   0.00003  -0.00001  -0.00081  -0.00082   3.13965
   D16        0.00040   0.00000   0.00000  -0.00117  -0.00117  -0.00077
   D17       -0.00020   0.00000   0.00000  -0.00072  -0.00072  -0.00092
   D18       -3.14027  -0.00003   0.00001  -0.00109  -0.00107  -3.14134
   D19       -0.00053  -0.00001   0.00000  -0.00055  -0.00055  -0.00108
   D20        3.14151   0.00000   0.00000  -0.00001  -0.00001   3.14150
   D21        3.14111  -0.00001   0.00000  -0.00145  -0.00145   3.13965
   D22       -0.00004   0.00000   0.00000  -0.00091  -0.00091  -0.00095
   D23        0.00020  -0.00001   0.00000  -0.00003  -0.00003   0.00017
   D24       -3.14055  -0.00003   0.00001  -0.00036  -0.00035  -3.14089
   D25        3.14028   0.00002  -0.00001   0.00033   0.00032   3.14060
   D26       -0.00047   0.00000   0.00000   0.00001   0.00001  -0.00046
   D27        3.14071   0.00003  -0.00001   0.00090   0.00089  -3.14159
   D28        0.00053  -0.00001   0.00001  -0.00021  -0.00020   0.00033
   D29       -0.00134   0.00002  -0.00001   0.00035   0.00034  -0.00100
   D30       -3.14152  -0.00002   0.00000  -0.00076  -0.00075   3.14092
   D31       -3.14062  -0.00002   0.00001  -0.00054  -0.00053  -3.14115
   D32       -0.00036   0.00002   0.00000   0.00050   0.00049   0.00013
   D33        0.00014  -0.00001   0.00000  -0.00023  -0.00022  -0.00008
   D34        3.14041   0.00003  -0.00001   0.00081   0.00080   3.14120
   D35        1.57327  -0.00015  -0.00157  -0.28903  -0.29057   1.28270
   D36       -0.48391  -0.00012  -0.00148  -0.27009  -0.27155  -0.75546
   D37       -2.60262   0.00009  -0.00158  -0.28235  -0.28397  -2.88658
   D38       -1.54134  -0.00018  -0.00152  -0.26937  -0.27086  -1.81220
   D39        2.68467  -0.00014  -0.00142  -0.25042  -0.25184   2.43283
   D40        0.56596   0.00006  -0.00152  -0.26268  -0.26426   0.30170
         Item               Value     Threshold  Converged?
 Maximum Force            0.001561     0.000450     NO 
 RMS     Force            0.000407     0.000300     NO 
 Maximum Displacement     0.465063     0.001800     NO 
 RMS     Displacement     0.092556     0.001200     NO 
 Predicted change in Energy=-1.081057D-04
 GradGradGradGradGradGradGradGradGradGradGradGradGradGradGradGradGradGrad

                          Input orientation:                          
 ---------------------------------------------------------------------
 Center     Atomic      Atomic             Coordinates (Angstroms)
 Number     Number       Type             X           Y           Z
 ---------------------------------------------------------------------
      1          8           0        3.922372    0.382106   -0.021652
      2          8           0       -2.617312    1.368028   -0.077116
      3          7           0       -1.588708   -0.704526    0.072938
      4          6           0       -0.212369   -0.355527    0.045987
      5          6           0        0.243685    0.969930   -0.044487
      6          6           0        0.727419   -1.402302    0.112867
      7          6           0        1.617932    1.228912   -0.068343
      8          6           0        2.094403   -1.139594    0.089349
      9          6           0        2.542362    0.182205   -0.001768
     10          6           0       -2.689065    0.122228    0.000479
     11          6           0       -4.025585   -0.596786   -0.044544
     12          1           0       -0.473068    1.776536   -0.093968
     13          1           0        0.384623   -2.431509    0.182843
     14          1           0       -1.776130   -1.694603    0.143352
     15          1           0        1.960474    2.258014   -0.138619
     16          1           0        2.823830   -1.939036    0.139726
     17          1           0       -4.412748   -0.574535   -1.071111
     18          1           0       -4.736678   -0.055539    0.582082
     19          1           0       -3.977153   -1.640114    0.281644
     20          1           0        4.146315    1.330312   -0.084258
 ---------------------------------------------------------------------
                    Distance matrix (angstroms):
                    1          2          3          4          5
     1  O    0.000000
     2  O    6.613818   0.000000
     3  N    5.617982   2.318626   0.000000
     4  C    4.200566   2.961343   1.420154   0.000000
     5  C    3.725425   2.888746   2.485006   1.404637   0.000000
     6  C    3.661958   4.347188   2.419282   1.408336   2.426157
     7  C    2.455545   4.237538   3.747090   2.423535   1.398641
     8  C    2.381042   5.340051   3.708755   2.436768   2.809477
     9  C    1.394555   5.294723   4.225827   2.807130   2.430278
    10  C    6.616579   1.250275   1.378245   2.522765   3.053136
    11  C    8.008044   2.417600   2.442085   3.821913   4.547666
    12  H    4.611893   2.182876   2.725469   2.152498   1.080184
    13  H    4.524811   4.849297   2.624611   2.164447   3.411939
    14  H    6.067361   3.183694   1.010117   2.061056   3.348831
    15  H    2.716938   4.663902   4.627969   3.403810   2.148345
    16  H    2.573041   6.371007   4.582463   3.425608   3.892706
    17  H    8.455220   2.825804   3.049745   4.351903   5.012155
    18  H    8.691097   2.636815   3.254247   4.565826   5.123299
    19  H    8.159893   3.320662   2.573626   3.984883   4.973345
    20  H    0.976301   6.763736   6.087345   4.675162   3.919435
                    6          7          8          9         10
     6  C    0.000000
     7  C    2.783727   0.000000
     8  C    1.392198   2.421097   0.000000
     9  C    2.412016   1.398069   1.398614   0.000000
    10  C    3.742884   4.447439   4.947895   5.231771   0.000000
    11  C    4.823347   5.931528   6.145472   6.614120   1.518320
    12  H    3.404256   2.161674   3.889644   3.412215   2.767001
    13  H    1.087048   3.870765   2.145025   3.394322   4.000298
    14  H    2.520739   4.484575   3.910496   4.710928   2.038318
    15  H    3.870604   1.086888   3.407880   2.160163   5.118509
    16  H    2.164196   3.396082   1.083378   2.144507   5.887292
    17  H    5.339317   6.373937   6.633926   7.077408   2.145895
    18  H    5.647148   6.515669   6.934092   7.306287   2.136020
    19  H    4.713601   6.297522   6.095186   6.775341   2.200926
    20  H    4.381197   2.530465   3.215729   1.974238   6.941834
                   11         12         13         14         15
    11  C    0.000000
    12  H    4.272643   0.000000
    13  H    4.782033   4.303476   0.000000
    14  H    2.510090   3.715252   2.283297   0.000000
    15  H    6.632619   2.481117   4.957647   5.446549   0.000000
    16  H    6.982125   4.972889   2.488799   4.606451   4.293959
    17  H    1.097374   4.690781   5.294858   3.111466   7.036393
    18  H    1.091450   4.689553   5.659713   3.412310   7.122063
    19  H    1.094201   4.908482   4.434090   2.206036   7.115296
    20  H    8.396143   4.640895   5.326627   6.654117   2.375181
                   16         17         18         19         20
    16  H    0.000000
    17  H    7.462978   0.000000
    18  H    7.804135   1.762763   0.000000
    19  H    6.809028   1.776273   1.782700   0.000000
    20  H    3.533804   8.823824   9.015107   8.657253   0.000000
 Stoichiometry    C8H9NO2
 Framework group  C1[X(C8H9NO2)]
 Deg. of freedom    54
 Full point group                 C1      NOp   1
 Largest Abelian subgroup         C1      NOp   1
 Largest concise Abelian subgroup C1      NOp   1
                         Standard orientation:                         
 ---------------------------------------------------------------------
 Center     Atomic      Atomic             Coordinates (Angstroms)
 Number     Number       Type             X           Y           Z
 ---------------------------------------------------------------------
      1          8           0        3.994807   -0.244887    0.027056
      2          8           0       -2.507218   -1.454752   -0.022791
      3          7           0       -1.549947    0.656994   -0.036492
      4          6           0       -0.162539    0.354123   -0.022138
      5          6           0        0.338487   -0.958075   -0.011403
      6          6           0        0.740926    1.434465   -0.017356
      7          6           0        1.720717   -1.171034    0.005459
      8          6           0        2.116028    1.217563   -0.001113
      9          6           0        2.608835   -0.091303    0.010437
     10          6           0       -2.621489   -0.209710   -0.023066
     11          6           0       -3.982175    0.459094    0.057740
     12          1           0       -0.350274   -1.790166   -0.017088
     13          1           0        0.363202    2.453746   -0.025341
     14          1           0       -1.771041    1.642569   -0.046313
     15          1           0        2.098182   -2.190238    0.013748
     16          1           0        2.817705    2.042995    0.003315
     17          1           0       -4.373007    0.359518    1.078311
     18          1           0       -4.671344   -0.065849   -0.606145
     19          1           0       -3.968229    1.521817   -0.202454
     20          1           0        4.250993   -1.186964    0.031938
 ---------------------------------------------------------------------
 Rotational constants (GHZ):      3.5627814      0.5409187      0.4710937
 Standard basis: 6-31G (6D, 7F)
 There are   117 symmetry adapted cartesian basis functions of A   symmetry.
 There are   117 symmetry adapted basis functions of A   symmetry.
   117 basis functions,   278 primitive gaussians,   117 cartesian basis functions
    40 alpha electrons       40 beta electrons
       nuclear repulsion energy       568.0086415470 Hartrees.
 NAtoms=   20 NActive=   20 NUniq=   20 SFac= 1.00D+00 NAtFMM=   60 NAOKFM=F Big=F
 Integral buffers will be    262144 words long.
 Raffenetti 2 integral format.
 Two-electron integral symmetry is turned on.
 One-electron integrals computed using PRISM.
 NBasis=   117 RedAO= T EigKep=  5.94D-04  NBF=   117
 NBsUse=   117 1.00D-06 EigRej= -1.00D+00 NBFU=   117
 Initial guess from the checkpoint file:  "E:\Research\Paracetamol Project\paracetamol_opt_freq.chk"
 B after Tr=     0.000000    0.000000    0.000000
         Rot=    0.999988   -0.004848    0.000291    0.000078 Ang=  -0.56 deg.
 ExpMin= 1.61D-01 ExpMax= 5.48D+03 ExpMxC= 8.25D+02 IAcc=1 IRadAn=         1 AccDes= 0.00D+00
 Harris functional with IExCor=  402 and IRadAn=       1 diagonalized for initial guess.
 HarFok:  IExCor=  402 AccDes= 0.00D+00 IRadAn=         1 IDoV= 1 UseB2=F ITyADJ=14
 ICtDFT=  3500011 ScaDFX=  1.000000  1.000000  1.000000  1.000000
 FoFCou: FMM=F IPFlag=           0 FMFlag=      100000 FMFlg1=           0
         NFxFlg=           0 DoJE=T BraDBF=F KetDBF=T FulRan=T
         wScrn=  0.000000 ICntrl=     500 IOpCl=  0 I1Cent=   200000004 NGrid=           0
         NMat0=    1 NMatS0=      1 NMatT0=    0 NMatD0=    1 NMtDS0=    0 NMtDT0=    0
 Petite list used in FoFCou.
 Keep R1 ints in memory in canonical form, NReq=24825568.
 Requested convergence on RMS density matrix=1.00D-08 within 128 cycles.
 Requested convergence on MAX density matrix=1.00D-06.
 Requested convergence on             energy=1.00D-06.
 No special actions if energy rises.
 Integral accuracy reduced to 1.0D-05 until final iterations.
 Initial convergence to 1.0D-05 achieved.  Increase integral accuracy.
 SCF Done:  E(RB3LYP) =  -515.339559823     A.U. after   13 cycles
            NFock= 13  Conv=0.92D-08     -V/T= 2.0056
 Calling FoFJK, ICntrl=      2127 FMM=F ISym2X=0 I1Cent= 0 IOpClX= 0 NMat=1 NMatS=1 NMatT=0.
 ***** Axes restored to original set *****
 -------------------------------------------------------------------
 Center     Atomic                   Forces (Hartrees/Bohr)
 Number     Number              X              Y              Z
 -------------------------------------------------------------------
      1        8          -0.000111805   -0.000077777    0.000044542
      2        8          -0.000340872    0.000560314    0.000852083
      3        7           0.000157041   -0.001033456    0.000449659
      4        6          -0.000321989    0.000246191    0.000496034
      5        6           0.000668311    0.000558923   -0.000011970
      6        6          -0.000071046    0.000000907    0.000000393
      7        6          -0.000258317   -0.000183838    0.000037729
      8        6          -0.000198676   -0.000160044   -0.000012998
      9        6           0.000155310    0.000655402   -0.000100469
     10        6           0.000452184   -0.000434671   -0.002820026
     11        6          -0.000137066    0.000275024   -0.000531617
     12        1           0.000055103   -0.000277082    0.000004908
     13        1           0.000023385   -0.000103261    0.000032562
     14        1           0.000145708   -0.000015072   -0.000208674
     15        1           0.000024611    0.000045071   -0.000004977
     16        1          -0.000205504   -0.000079318    0.000018017
     17        1           0.000407152    0.000090321    0.000567437
     18        1          -0.000594386   -0.000043478    0.000691002
     19        1           0.000110097    0.000034596    0.000506270
     20        1           0.000040761   -0.000058751   -0.000009905
 -------------------------------------------------------------------
 Cartesian Forces:  Max     0.002820026 RMS     0.000496860

 GradGradGradGradGradGradGradGradGradGradGradGradGradGradGradGradGradGrad
 Berny optimization.
 Using GEDIIS/GDIIS optimizer.
 FormGI is forming the generalized inverse of G from B-inverse, IUseBI=4.
 GSVD:  received Info=                   1 from GESDD.
 Internal  Forces:  Max     0.000948857 RMS     0.000287622
 Search for a local minimum.
 Step number  21 out of a maximum of  101
 All quantities printed in internal units (Hartrees-Bohrs-Radians)
 Mixed Optimization -- En-DIIS/RFO-DIIS
 Swapping is turned off.
 Update second derivatives using D2CorX and points   19   20   21
 DE= -3.94D-05 DEPred=-1.08D-04 R= 3.65D-01
 Trust test= 3.65D-01 RLast= 6.68D-01 DXMaxT set to 1.06D-01
 ITU=  0  0 -1  0  0  0  0  0  0  0 -1  1  0  0 -1  0  1  1  1  1
 ITU=  0
     Eigenvalues ---    0.00028   0.00862   0.01677   0.01710   0.02037
     Eigenvalues ---    0.02150   0.02155   0.02156   0.02157   0.02157
     Eigenvalues ---    0.02158   0.02161   0.02170   0.02193   0.04662
     Eigenvalues ---    0.06614   0.07533   0.10672   0.12300   0.13267
     Eigenvalues ---    0.15963   0.16022   0.16065   0.16221   0.16395
     Eigenvalues ---    0.17421   0.18000   0.20936   0.22413   0.23011
     Eigenvalues ---    0.24820   0.26116   0.26497   0.30448   0.33337
     Eigenvalues ---    0.34391   0.34565   0.34684   0.35156   0.35184
     Eigenvalues ---    0.35357   0.35545   0.38223   0.41743   0.42516
     Eigenvalues ---    0.44381   0.45292   0.46166   0.46943   0.47958
     Eigenvalues ---    0.51754   0.52691   0.53893   0.84627
 En-DIIS/RFO-DIIS IScMMF=        0 using points:    21   20
 RFO step:  Lambda=-2.94878939D-05.
 DidBck=T Rises=F RFO-DIIS coefs:    0.62752    0.37248
 Iteration  1 RMS(Cart)=  0.03890591 RMS(Int)=  0.00118109
 Iteration  2 RMS(Cart)=  0.00146508 RMS(Int)=  0.00001246
 Iteration  3 RMS(Cart)=  0.00000215 RMS(Int)=  0.00001237
 Iteration  4 RMS(Cart)=  0.00000000 RMS(Int)=  0.00001237
 Variable       Old X    -DE/DX   Delta X   Delta X   Delta X     New X
                                 (Linear)    (Quad)   (Total)
    R1        2.63533  -0.00009   0.00075  -0.00405  -0.00330   2.63202
    R2        1.84494  -0.00005   0.00019  -0.00136  -0.00117   1.84377
    R3        2.36268   0.00049   0.00088  -0.00355  -0.00267   2.36001
    R4        2.68370  -0.00007   0.00130  -0.00623  -0.00493   2.67877
    R5        2.60450   0.00043  -0.00033   0.00717   0.00684   2.61134
    R6        1.90885  -0.00003   0.00021  -0.00103  -0.00083   1.90802
    R7        2.65438   0.00043  -0.00113   0.00717   0.00604   2.66042
    R8        2.66137  -0.00026   0.00057  -0.00286  -0.00229   2.65908
    R9        2.64305  -0.00022   0.00137  -0.00750  -0.00613   2.63692
   R10        2.04125  -0.00025  -0.00033  -0.00055  -0.00088   2.04037
   R11        2.63087  -0.00030  -0.00032  -0.00136  -0.00167   2.62920
   R12        2.05422   0.00009  -0.00013   0.00140   0.00127   2.05549
   R13        2.64197  -0.00011  -0.00100   0.00326   0.00226   2.64422
   R14        2.05392   0.00005  -0.00015   0.00112   0.00097   2.05489
   R15        2.64300   0.00037   0.00064   0.00004   0.00068   2.64368
   R16        2.04729  -0.00008  -0.00001  -0.00050  -0.00051   2.04678
   R17        2.86921  -0.00002   0.00008   0.00190   0.00197   2.87118
   R18        2.07374  -0.00067   0.00017  -0.00308  -0.00291   2.07083
   R19        2.06254   0.00076  -0.00066   0.00434   0.00368   2.06622
   R20        2.06774   0.00012   0.00094  -0.00126  -0.00032   2.06742
    A1        1.94671   0.00010   0.00088  -0.00257  -0.00169   1.94501
    A2        2.24635  -0.00014   0.00124  -0.00927  -0.00805   2.23830
    A3        2.00646  -0.00006  -0.00063   0.00287   0.00221   2.00868
    A4        2.03029   0.00020  -0.00061   0.00656   0.00592   2.03621
    A5        2.15050   0.00069   0.00052   0.00679   0.00731   2.15782
    A6        2.05235  -0.00065  -0.00044  -0.00609  -0.00653   2.04582
    A7        2.08033  -0.00004  -0.00008  -0.00070  -0.00078   2.07955
    A8        2.08845   0.00009   0.00027   0.00001   0.00027   2.08872
    A9        2.08535  -0.00019   0.00063  -0.00676  -0.00613   2.07922
   A10        2.10938   0.00010  -0.00089   0.00675   0.00586   2.11524
   A11        2.11083  -0.00005  -0.00013   0.00023   0.00010   2.11093
   A12        2.09018   0.00008  -0.00059   0.00445   0.00386   2.09405
   A13        2.08218  -0.00003   0.00072  -0.00468  -0.00396   2.07821
   A14        2.10626  -0.00007  -0.00017   0.00068   0.00052   2.10678
   A15        2.07840   0.00005  -0.00036   0.00104   0.00068   2.07908
   A16        2.09852   0.00002   0.00053  -0.00172  -0.00119   2.09732
   A17        2.08739   0.00015   0.00023   0.00069   0.00092   2.08831
   A18        2.11889  -0.00029   0.00104  -0.01077  -0.00973   2.10916
   A19        2.07690   0.00014  -0.00127   0.01008   0.00881   2.08571
   A20        2.14877   0.00028   0.00042   0.00477   0.00518   2.15395
   A21        2.04131  -0.00019  -0.00030  -0.00385  -0.00416   2.03716
   A22        2.09311  -0.00008  -0.00012  -0.00091  -0.00103   2.09208
   A23        2.15935   0.00042   0.00015   0.00192   0.00202   2.16137
   A24        2.11828  -0.00032   0.00080   0.00419   0.00493   2.12321
   A25        2.00454  -0.00006  -0.00069  -0.00547  -0.00621   1.99832
   A26        1.90573  -0.00018   0.00510  -0.00206   0.00305   1.90877
   A27        1.89826   0.00046  -0.00125   0.00329   0.00203   1.90028
   A28        1.98640  -0.00039  -0.00531  -0.00721  -0.01253   1.97387
   A29        1.87252   0.00012   0.00410   0.00058   0.00468   1.87720
   A30        1.89001   0.00036  -0.00199   0.01188   0.00989   1.89990
   A31        1.90766  -0.00035  -0.00015  -0.00608  -0.00625   1.90141
    D1        0.00285  -0.00002   0.00076  -0.00943  -0.00867  -0.00582
    D2       -3.13906   0.00000   0.00037  -0.00555  -0.00517   3.13895
    D3        0.01807  -0.00011   0.00141  -0.03167  -0.03026  -0.01219
    D4       -3.12246  -0.00011   0.00137  -0.03288  -0.03150   3.12923
    D5       -3.13809   0.00008   0.00216  -0.01734  -0.01519   3.12991
    D6        0.00457   0.00008   0.00212  -0.01854  -0.01643  -0.01186
    D7       -0.02700  -0.00004  -0.00081   0.03438   0.03358   0.00658
    D8        3.06666   0.00095   0.00673   0.04970   0.05643   3.12309
    D9        3.12933  -0.00023  -0.00157   0.01990   0.01833  -3.13553
   D10       -0.06020   0.00076   0.00597   0.03523   0.04119  -0.01901
   D11       -3.13915   0.00000  -0.00041   0.00001  -0.00040  -3.13955
   D12        0.00329   0.00000  -0.00074   0.00183   0.00108   0.00437
   D13        0.00136   0.00001  -0.00037   0.00123   0.00086   0.00222
   D14       -3.13939   0.00000  -0.00070   0.00305   0.00235  -3.13704
   D15        3.13965  -0.00001   0.00031  -0.00005   0.00025   3.13990
   D16       -0.00077  -0.00001   0.00044  -0.00237  -0.00194  -0.00271
   D17       -0.00092  -0.00001   0.00027  -0.00121  -0.00094  -0.00186
   D18       -3.14134  -0.00002   0.00040  -0.00353  -0.00313   3.13871
   D19       -0.00108   0.00000   0.00021  -0.00006   0.00015  -0.00093
   D20        3.14150   0.00000   0.00000   0.00042   0.00043  -3.14126
   D21        3.13965   0.00001   0.00054  -0.00191  -0.00137   3.13828
   D22       -0.00095   0.00001   0.00034  -0.00143  -0.00110  -0.00205
   D23        0.00017   0.00000   0.00001   0.00000   0.00001   0.00018
   D24       -3.14089  -0.00001   0.00013  -0.00187  -0.00173   3.14057
   D25        3.14060   0.00001  -0.00012   0.00231   0.00218  -3.14041
   D26       -0.00046   0.00000   0.00000   0.00045   0.00045  -0.00001
   D27       -3.14159   0.00001  -0.00033   0.00283   0.00251  -3.13908
   D28        0.00033  -0.00001   0.00007  -0.00117  -0.00109  -0.00077
   D29       -0.00100   0.00001  -0.00013   0.00235   0.00223   0.00123
   D30        3.14092   0.00000   0.00028  -0.00165  -0.00137   3.13955
   D31       -3.14115  -0.00001   0.00020  -0.00256  -0.00236   3.13968
   D32        0.00013   0.00000  -0.00018   0.00119   0.00101   0.00114
   D33       -0.00008   0.00000   0.00008  -0.00075  -0.00065  -0.00073
   D34        3.14120   0.00002  -0.00030   0.00301   0.00271  -3.13927
   D35        1.28270   0.00058   0.10823  -0.00429   0.10395   1.38665
   D36       -0.75546   0.00028   0.10114  -0.00568   0.09548  -0.65998
   D37       -2.88658   0.00066   0.10577   0.00461   0.11038  -2.77620
   D38       -1.81220  -0.00041   0.10089  -0.01916   0.08173  -1.73047
   D39        2.43283  -0.00070   0.09380  -0.02055   0.07326   2.50609
   D40        0.30170  -0.00033   0.09843  -0.01026   0.08816   0.38986
         Item               Value     Threshold  Converged?
 Maximum Force            0.000949     0.000450     NO 
 RMS     Force            0.000288     0.000300     YES
 Maximum Displacement     0.220184     0.001800     NO 
 RMS     Displacement     0.039083     0.001200     NO 
 Predicted change in Energy=-8.735071D-05
 GradGradGradGradGradGradGradGradGradGradGradGradGradGradGradGradGradGrad

                          Input orientation:                          
 ---------------------------------------------------------------------
 Center     Atomic      Atomic             Coordinates (Angstroms)
 Number     Number       Type             X           Y           Z
 ---------------------------------------------------------------------
      1          8           0        3.920205    0.377111    0.009784
      2          8           0       -2.614583    1.369594   -0.084950
      3          7           0       -1.586282   -0.709151    0.027122
      4          6           0       -0.214410   -0.352322    0.018526
      5          6           0        0.245290    0.976241   -0.056210
      6          6           0        0.723283   -1.399072    0.089580
      7          6           0        1.616767    1.233452   -0.061369
      8          6           0        2.089711   -1.137151    0.084568
      9          6           0        2.540722    0.184920    0.008081
     10          6           0       -2.687319    0.124579   -0.019298
     11          6           0       -4.024391   -0.597020   -0.018732
     12          1           0       -0.474523    1.779449   -0.106434
     13          1           0        0.383025   -2.430405    0.150469
     14          1           0       -1.770435   -1.700803    0.073663
     15          1           0        1.961909    2.263010   -0.119047
     16          1           0        2.810049   -1.944079    0.140276
     17          1           0       -4.404527   -0.658525   -1.044679
     18          1           0       -4.741509   -0.012694    0.564213
     19          1           0       -3.966846   -1.606869    0.398160
     20          1           0        4.148464    1.323935   -0.048322
 ---------------------------------------------------------------------
                    Distance matrix (angstroms):
                    1          2          3          4          5
     1  O    0.000000
     2  O    6.610404   0.000000
     3  N    5.612634   2.321883   0.000000
     4  C    4.198475   2.955762   1.417545   0.000000
     5  C    3.724018   2.886940   2.490411   1.407832   0.000000
     6  C    3.658073   4.340198   2.411221   1.407125   2.427312
     7  C    2.458497   4.233605   3.747141   2.423690   1.395397
     8  C    2.376824   5.333188   3.701272   2.435014   2.808583
     9  C    1.392807   5.290489   4.222783   2.807043   2.428854
    10  C    6.612412   1.248864   1.381862   2.518759   3.053995
    11  C    8.004146   2.420643   2.441117   3.818013   4.550465
    12  H    4.614508   2.179060   2.728915   2.151214   1.079720
    13  H    4.518139   4.845727   2.618416   2.166279   3.415689
    14  H    6.058481   3.188272   1.009679   2.059770   3.353592
    15  H    2.721789   4.663007   4.630850   3.405181   2.146277
    16  H    2.576315   6.360643   4.567886   3.419922   3.891641
    17  H    8.454915   2.870234   3.015597   4.333734   5.026960
    18  H    8.688188   2.618386   3.275511   4.572499   5.121628
    19  H    8.142026   3.304745   2.571119   3.974769   4.961955
    20  H    0.975681   6.763300   6.084936   4.674289   3.918638
                    6          7          8          9         10
     6  C    0.000000
     7  C    2.784112   0.000000
     8  C    1.391313   2.421721   0.000000
     9  C    2.412210   1.399263   1.398976   0.000000
    10  C    3.737054   4.444832   4.941940   5.228461   0.000000
    11  C    4.816164   5.930861   6.138784   6.611571   1.519364
    12  H    3.402374   2.161859   3.888230   3.412820   2.764535
    13  H    1.087719   3.871801   2.142342   3.393503   3.997972
    14  H    2.511957   4.483439   3.901096   4.705989   2.044832
    15  H    3.871506   1.087401   3.408650   2.160936   5.118414
    16  H    2.157358   3.400189   1.083107   2.150034   5.875872
    17  H    5.303715   6.387680   6.609040   7.075040   2.147897
    18  H    5.657851   6.509370   6.939743   7.306108   2.139865
    19  H    4.704861   6.281348   6.082834   6.761000   2.193028
    20  H    4.377858   2.533347   3.211397   1.971134   6.940261
                   11         12         13         14         15
    11  C    0.000000
    12  H    4.272805   0.000000
    13  H    4.776531   4.303982   0.000000
    14  H    2.511412   3.718061   2.274996   0.000000
    15  H    6.635181   2.483987   4.959200   5.447875   0.000000
    16  H    6.967742   4.971311   2.475291   4.587424   4.299557
    17  H    1.095834   4.718999   5.242956   3.045566   7.065669
    18  H    1.093398   4.676399   5.681316   3.452192   7.112066
    19  H    1.094031   4.890612   4.434066   2.222239   7.098846
    20  H    8.395624   4.645737   5.321008   6.648104   2.380732
                   16         17         18         19         20
    16  H    0.000000
    17  H    7.423401   0.000000
    18  H    7.806151   1.766123   0.000000
    19  H    6.790179   1.781209   1.780188   0.000000
    20  H    3.536501   8.836092   9.010737   8.639862   0.000000
 Stoichiometry    C8H9NO2
 Framework group  C1[X(C8H9NO2)]
 Deg. of freedom    54
 Full point group                 C1      NOp   1
 Largest Abelian subgroup         C1      NOp   1
 Largest concise Abelian subgroup C1      NOp   1
                         Standard orientation:                         
 ---------------------------------------------------------------------
 Center     Atomic      Atomic             Coordinates (Angstroms)
 Number     Number       Type             X           Y           Z
 ---------------------------------------------------------------------
      1          8           0        3.992961   -0.236606    0.003195
      2          8           0       -2.504006   -1.455840   -0.015096
      3          7           0       -1.547610    0.659887   -0.002859
      4          6           0       -0.164289    0.350283   -0.001850
      5          6           0        0.340647   -0.963872    0.003340
      6          6           0        0.737037    1.430835   -0.006560
      7          6           0        1.720146   -1.173893    0.006425
      8          6           0        2.111653    1.215950   -0.003928
      9          6           0        2.607668   -0.092121    0.003293
     10          6           0       -2.619388   -0.212320   -0.012406
     11          6           0       -3.980628    0.462020    0.015093
     12          1           0       -0.351228   -1.792788    0.002661
     13          1           0        0.361672    2.451711   -0.013311
     14          1           0       -1.765691    1.645709    0.003906
     15          1           0        2.100352   -2.192652    0.010111
     16          1           0        2.803963    2.048901   -0.008513
     17          1           0       -4.369797    0.453343    1.039459
     18          1           0       -4.672991   -0.113185   -0.605627
     19          1           0       -3.955217    1.494863   -0.344761
     20          1           0        4.253487   -1.176830    0.010850
 ---------------------------------------------------------------------
 Rotational constants (GHZ):      3.5622069      0.5417975      0.4716656
 Standard basis: 6-31G (6D, 7F)
 There are   117 symmetry adapted cartesian basis functions of A   symmetry.
 There are   117 symmetry adapted basis functions of A   symmetry.
   117 basis functions,   278 primitive gaussians,   117 cartesian basis functions
    40 alpha electrons       40 beta electrons
       nuclear repulsion energy       568.1983074702 Hartrees.
 NAtoms=   20 NActive=   20 NUniq=   20 SFac= 1.00D+00 NAtFMM=   60 NAOKFM=F Big=F
 Integral buffers will be    262144 words long.
 Raffenetti 2 integral format.
 Two-electron integral symmetry is turned on.
 One-electron integrals computed using PRISM.
 NBasis=   117 RedAO= T EigKep=  5.94D-04  NBF=   117
 NBsUse=   117 1.00D-06 EigRej= -1.00D+00 NBFU=   117
 Initial guess from the checkpoint file:  "E:\Research\Paracetamol Project\paracetamol_opt_freq.chk"
 B after Tr=     0.000000    0.000000    0.000000
         Rot=    0.999999    0.001639   -0.000001   -0.000179 Ang=   0.19 deg.
 ExpMin= 1.61D-01 ExpMax= 5.48D+03 ExpMxC= 8.25D+02 IAcc=1 IRadAn=         1 AccDes= 0.00D+00
 Harris functional with IExCor=  402 and IRadAn=       1 diagonalized for initial guess.
 HarFok:  IExCor=  402 AccDes= 0.00D+00 IRadAn=         1 IDoV= 1 UseB2=F ITyADJ=14
 ICtDFT=  3500011 ScaDFX=  1.000000  1.000000  1.000000  1.000000
 FoFCou: FMM=F IPFlag=           0 FMFlag=      100000 FMFlg1=           0
         NFxFlg=           0 DoJE=T BraDBF=F KetDBF=T FulRan=T
         wScrn=  0.000000 ICntrl=     500 IOpCl=  0 I1Cent=   200000004 NGrid=           0
         NMat0=    1 NMatS0=      1 NMatT0=    0 NMatD0=    1 NMtDS0=    0 NMtDT0=    0
 Petite list used in FoFCou.
 Keep R1 ints in memory in canonical form, NReq=24825568.
 Requested convergence on RMS density matrix=1.00D-08 within 128 cycles.
 Requested convergence on MAX density matrix=1.00D-06.
 Requested convergence on             energy=1.00D-06.
 No special actions if energy rises.
 Integral accuracy reduced to 1.0D-05 until final iterations.
 Initial convergence to 1.0D-05 achieved.  Increase integral accuracy.
 SCF Done:  E(RB3LYP) =  -515.339529511     A.U. after   12 cycles
            NFock= 12  Conv=0.79D-08     -V/T= 2.0056
 Calling FoFJK, ICntrl=      2127 FMM=F ISym2X=0 I1Cent= 0 IOpClX= 0 NMat=1 NMatS=1 NMatT=0.
 ***** Axes restored to original set *****
 -------------------------------------------------------------------
 Center     Atomic                   Forces (Hartrees/Bohr)
 Number     Number              X              Y              Z
 -------------------------------------------------------------------
      1        8           0.000612810    0.000743940   -0.000176133
      2        8           0.000117664    0.001431849    0.000069547
      3        7          -0.002650128    0.003692163    0.000181252
      4        6           0.001808940    0.000546962   -0.000303885
      5        6          -0.003270668   -0.002640704    0.000137783
      6        6           0.000477580   -0.000324437   -0.000011764
      7        6           0.002944869    0.000248993    0.000082609
      8        6          -0.000360716   -0.000193894    0.000008453
      9        6          -0.001132053   -0.001227049    0.000259217
     10        6           0.000405779   -0.004021658    0.000345220
     11        6           0.000139921    0.001392317    0.000629686
     12        1           0.000319687    0.000393815   -0.000180360
     13        1          -0.000299736    0.000458982   -0.000080058
     14        1          -0.000313079   -0.000128841    0.000202401
     15        1          -0.000062715   -0.000233229    0.000018511
     16        1           0.000806136    0.000597348   -0.000059357
     17        1          -0.000513231   -0.000566876   -0.000233206
     18        1           0.000773296   -0.000197668   -0.000469878
     19        1          -0.000356611   -0.000510764   -0.000419519
     20        1           0.000552256    0.000538751   -0.000000518
 -------------------------------------------------------------------
 Cartesian Forces:  Max     0.004021658 RMS     0.001157992

 GradGradGradGradGradGradGradGradGradGradGradGradGradGradGradGradGradGrad
 Berny optimization.
 Using GEDIIS/GDIIS optimizer.
 FormGI is forming the generalized inverse of G from B-inverse, IUseBI=4.
 GSVD:  received Info=                   1 from GESDD.
 Internal  Forces:  Max     0.002246152 RMS     0.000678126
 Search for a local minimum.
 Step number  22 out of a maximum of  101
 All quantities printed in internal units (Hartrees-Bohrs-Radians)
 Mixed Optimization -- En-DIIS/RFO-DIIS
 Swapping is turned off.
 Update second derivatives using D2CorX and points   19   20   21   22
 DE=  3.03D-05 DEPred=-8.74D-05 R=-3.47D-01
 Trust test=-3.47D-01 RLast= 2.49D-01 DXMaxT set to 5.30D-02
 ITU= -1  0  0 -1  0  0  0  0  0  0  0 -1  1  0  0 -1  0  1  1  1
 ITU=  1  0
     Eigenvalues ---    0.00030   0.01176   0.01708   0.01761   0.02036
     Eigenvalues ---    0.02153   0.02155   0.02157   0.02157   0.02158
     Eigenvalues ---    0.02160   0.02166   0.02177   0.02193   0.04689
     Eigenvalues ---    0.06837   0.07506   0.11127   0.13264   0.15852
     Eigenvalues ---    0.15975   0.16024   0.16068   0.16353   0.16592
     Eigenvalues ---    0.17496   0.18295   0.22065   0.22568   0.23146
     Eigenvalues ---    0.25038   0.26390   0.27298   0.31166   0.34309
     Eigenvalues ---    0.34529   0.34605   0.35150   0.35159   0.35196
     Eigenvalues ---    0.35486   0.37029   0.38828   0.42250   0.42993
     Eigenvalues ---    0.44438   0.45291   0.46777   0.47180   0.50516
     Eigenvalues ---    0.51914   0.52707   0.54211   0.84699
 En-DIIS/RFO-DIIS IScMMF=        0 using points:    22   21   20
 RFO step:  Lambda=-7.36228884D-05.
 DidBck=T Rises=F RFO-DIIS coefs:    0.38708    0.42413    0.18878
 Iteration  1 RMS(Cart)=  0.02475469 RMS(Int)=  0.00064223
 Iteration  2 RMS(Cart)=  0.00068257 RMS(Int)=  0.00000656
 Iteration  3 RMS(Cart)=  0.00000041 RMS(Int)=  0.00000656
 Variable       Old X    -DE/DX   Delta X   Delta X   Delta X     New X
                                 (Linear)    (Quad)   (Total)
    R1        2.63202   0.00133   0.00241   0.00043   0.00283   2.63486
    R2        1.84377   0.00065   0.00081   0.00017   0.00098   1.84475
    R3        2.36001   0.00143   0.00208   0.00095   0.00303   2.36305
    R4        2.67877   0.00204   0.00368   0.00091   0.00459   2.68336
    R5        2.61134  -0.00193  -0.00436  -0.00101  -0.00537   2.60597
    R6        1.90802   0.00019   0.00061  -0.00008   0.00053   1.90855
    R7        2.66042  -0.00179  -0.00427  -0.00067  -0.00494   2.65548
    R8        2.65908   0.00094   0.00169   0.00028   0.00197   2.66106
    R9        2.63692   0.00225   0.00445   0.00094   0.00539   2.64231
   R10        2.04037   0.00009   0.00037  -0.00023   0.00014   2.04052
   R11        2.62920   0.00114   0.00086  -0.00005   0.00081   2.63001
   R12        2.05549  -0.00034  -0.00084  -0.00009  -0.00093   2.05456
   R13        2.64422  -0.00093  -0.00189  -0.00069  -0.00258   2.64164
   R14        2.05489  -0.00024  -0.00067  -0.00010  -0.00077   2.05412
   R15        2.64368  -0.00030  -0.00009   0.00042   0.00033   2.64401
   R16        2.04678   0.00009   0.00031  -0.00003   0.00028   2.04705
   R17        2.87118  -0.00010  -0.00117  -0.00060  -0.00177   2.86942
   R18        2.07083   0.00043   0.00187  -0.00059   0.00128   2.07210
   R19        2.06622  -0.00086  -0.00259   0.00089  -0.00170   2.06453
   R20        2.06742   0.00029   0.00067  -0.00012   0.00055   2.06797
    A1        1.94501   0.00076   0.00148   0.00095   0.00243   1.94745
    A2        2.23830   0.00169   0.00557   0.00031   0.00588   2.24418
    A3        2.00868  -0.00058  -0.00167  -0.00040  -0.00206   2.00662
    A4        2.03621  -0.00112  -0.00394   0.00009  -0.00384   2.03237
    A5        2.15782  -0.00086  -0.00422   0.00032  -0.00390   2.15392
    A6        2.04582   0.00134   0.00378  -0.00024   0.00354   2.04936
    A7        2.07955  -0.00048   0.00044  -0.00008   0.00036   2.07991
    A8        2.08872   0.00024  -0.00003   0.00021   0.00018   2.08890
    A9        2.07922   0.00040   0.00408   0.00031   0.00439   2.08361
   A10        2.11524  -0.00064  -0.00404  -0.00052  -0.00456   2.11068
   A11        2.11093   0.00026  -0.00013  -0.00010  -0.00023   2.11069
   A12        2.09405  -0.00057  -0.00266  -0.00038  -0.00305   2.09100
   A13        2.07821   0.00031   0.00279   0.00049   0.00328   2.08150
   A14        2.10678   0.00024  -0.00040  -0.00010  -0.00050   2.10628
   A15        2.07908  -0.00010  -0.00060  -0.00010  -0.00070   2.07838
   A16        2.09732  -0.00014   0.00100   0.00021   0.00121   2.09853
   A17        2.08831  -0.00004  -0.00045   0.00019  -0.00025   2.08806
   A18        2.10916   0.00104   0.00649   0.00063   0.00713   2.11629
   A19        2.08571  -0.00100  -0.00604  -0.00083  -0.00687   2.07884
   A20        2.15395  -0.00097  -0.00296   0.00001  -0.00296   2.15099
   A21        2.03716   0.00119   0.00239   0.00011   0.00251   2.03966
   A22        2.09208  -0.00022   0.00057  -0.00012   0.00046   2.09253
   A23        2.16137  -0.00049  -0.00116   0.00033  -0.00080   2.16057
   A24        2.12321  -0.00041  -0.00262  -0.00194  -0.00452   2.11869
   A25        1.99832   0.00089   0.00346   0.00179   0.00528   2.00360
   A26        1.90877   0.00077   0.00072  -0.00128  -0.00056   1.90821
   A27        1.90028  -0.00065  -0.00188   0.00044  -0.00143   1.89885
   A28        1.97387   0.00062   0.00499   0.00274   0.00773   1.98160
   A29        1.87720  -0.00008  -0.00079  -0.00175  -0.00253   1.87466
   A30        1.89990  -0.00082  -0.00707   0.00089  -0.00619   1.89371
   A31        1.90141   0.00012   0.00375  -0.00127   0.00249   1.90391
    D1       -0.00582   0.00006   0.00570  -0.00001   0.00569  -0.00013
    D2        3.13895  -0.00001   0.00336  -0.00032   0.00304  -3.14120
    D3       -0.01219   0.00004   0.01926  -0.00156   0.01770   0.00551
    D4        3.12923   0.00005   0.02000  -0.00189   0.01810  -3.13586
    D5        3.12991  -0.00003   0.01040   0.00046   0.01086   3.14077
    D6       -0.01186  -0.00002   0.01114   0.00012   0.01127  -0.00059
    D7        0.00658  -0.00025  -0.02099   0.00270  -0.01830  -0.01172
    D8        3.12309  -0.00027  -0.03118   0.01103  -0.02014   3.10295
    D9       -3.13553  -0.00018  -0.01203   0.00065  -0.01138   3.13628
   D10       -0.01901  -0.00020  -0.02222   0.00899  -0.01322  -0.03224
   D11       -3.13955  -0.00006   0.00004  -0.00099  -0.00095  -3.14051
   D12        0.00437  -0.00009  -0.00104  -0.00099  -0.00203   0.00234
   D13        0.00222  -0.00007  -0.00072  -0.00065  -0.00137   0.00085
   D14       -3.13704  -0.00009  -0.00179  -0.00065  -0.00245  -3.13949
   D15        3.13990   0.00003   0.00000   0.00060   0.00061   3.14051
   D16       -0.00271   0.00005   0.00141   0.00042   0.00183  -0.00088
   D17       -0.00186   0.00004   0.00071   0.00028   0.00100  -0.00086
   D18        3.13871   0.00005   0.00212   0.00010   0.00222   3.14093
   D19       -0.00093   0.00005   0.00001   0.00061   0.00063  -0.00031
   D20       -3.14126   0.00000  -0.00026   0.00017  -0.00009  -3.14135
   D21        3.13828   0.00008   0.00112   0.00061   0.00173   3.14001
   D22       -0.00205   0.00003   0.00084   0.00017   0.00102  -0.00103
   D23        0.00018   0.00002   0.00000   0.00014   0.00014   0.00031
   D24        3.14057   0.00003   0.00112   0.00000   0.00112  -3.14150
   D25       -3.14041   0.00000  -0.00140   0.00032  -0.00107  -3.14148
   D26       -0.00001   0.00001  -0.00028   0.00019  -0.00009  -0.00010
   D27       -3.13908  -0.00008  -0.00170  -0.00051  -0.00221  -3.14130
   D28       -0.00077   0.00000   0.00071  -0.00019   0.00052  -0.00025
   D29        0.00123  -0.00003  -0.00143  -0.00006  -0.00149  -0.00027
   D30        3.13955   0.00005   0.00098   0.00026   0.00124   3.14079
   D31        3.13968   0.00004   0.00154   0.00011   0.00165   3.14133
   D32        0.00114  -0.00003  -0.00071  -0.00019  -0.00090   0.00025
   D33       -0.00073   0.00003   0.00044   0.00024   0.00068  -0.00005
   D34       -3.13927  -0.00005  -0.00181  -0.00005  -0.00187  -3.14114
   D35        1.38665  -0.00003  -0.00886  -0.06455  -0.07341   1.31324
   D36       -0.65998  -0.00001  -0.00726  -0.06198  -0.06924  -0.72921
   D37       -2.77620  -0.00011  -0.01405  -0.06248  -0.07653  -2.85273
   D38       -1.73047  -0.00001   0.00104  -0.07271  -0.07167  -1.80214
   D39        2.50609   0.00001   0.00264  -0.07014  -0.06750   2.43859
   D40        0.38986  -0.00009  -0.00415  -0.07065  -0.07478   0.31508
         Item               Value     Threshold  Converged?
 Maximum Force            0.002246     0.000450     NO 
 RMS     Force            0.000678     0.000300     NO 
 Maximum Displacement     0.140329     0.001800     NO 
 RMS     Displacement     0.024733     0.001200     NO 
 Predicted change in Energy=-8.261428D-05
 GradGradGradGradGradGradGradGradGradGradGradGradGradGradGradGradGradGrad

                          Input orientation:                          
 ---------------------------------------------------------------------
 Center     Atomic      Atomic             Coordinates (Angstroms)
 Number     Number       Type             X           Y           Z
 ---------------------------------------------------------------------
      1          8           0        3.922986    0.380383   -0.001482
      2          8           0       -2.618737    1.367767   -0.093318
      3          7           0       -1.588219   -0.706381    0.046285
      4          6           0       -0.212834   -0.353720    0.029900
      5          6           0        0.245041    0.972165   -0.053882
      6          6           0        0.725990   -1.400795    0.101895
      7          6           0        1.619113    1.230805   -0.065502
      8          6           0        2.092708   -1.138333    0.089999
      9          6           0        2.542622    0.183823    0.005752
     10          6           0       -2.689161    0.121525   -0.018505
     11          6           0       -4.026687   -0.597174   -0.029591
     12          1           0       -0.471885    1.777848   -0.107270
     13          1           0        0.383144   -2.430453    0.167643
     14          1           0       -1.773597   -1.697209    0.108877
     15          1           0        1.962468    2.260105   -0.130355
     16          1           0        2.819419   -1.939770    0.145046
     17          1           0       -4.428993   -0.599659   -1.049628
     18          1           0       -4.729150   -0.043239    0.597511
     19          1           0       -3.970072   -1.631284    0.323901
     20          1           0        4.150443    1.327794   -0.061874
 ---------------------------------------------------------------------
                    Distance matrix (angstroms):
                    1          2          3          4          5
     1  O    0.000000
     2  O    6.616457   0.000000
     3  N    5.617537   2.320247   0.000000
     4  C    4.200584   2.960923   1.419972   0.000000
     5  C    3.725618   2.891242   2.487648   1.405219   0.000000
     6  C    3.661157   4.346291   2.416789   1.408170   2.426215
     7  C    2.456653   4.240154   3.748622   2.424016   1.398250
     8  C    2.380081   5.339649   3.706443   2.436135   2.808697
     9  C    1.394307   5.296335   4.225868   2.807504   2.429798
    10  C    6.617234   1.250470   1.379021   2.521982   3.055222
    11  C    8.009601   2.418136   2.442091   3.822078   4.550943
    12  H    4.612915   2.185711   2.727852   2.151629   1.079795
    13  H    4.523261   4.848285   2.621722   2.164944   3.412618
    14  H    6.064621   3.185784   1.009962   2.060869   3.350664
    15  H    2.719116   4.667448   4.630185   3.404365   2.148067
    16  H    2.573411   6.369470   4.578021   3.423941   3.891832
    17  H    8.474353   2.839423   3.046705   4.359112   5.030779
    18  H    8.683186   2.630975   3.257154   4.562421   5.118392
    19  H    8.151874   3.315794   2.570164   3.979377   4.968687
    20  H    0.976202   6.769371   6.089484   4.676976   3.921569
                    6          7          8          9         10
     6  C    0.000000
     7  C    2.784063   0.000000
     8  C    1.391742   2.421009   0.000000
     9  C    2.412553   1.397897   1.399149   0.000000
    10  C    3.741018   4.449038   4.946239   5.232210   0.000000
    11  C    4.821933   5.934463   6.144440   6.615666   1.518429
    12  H    3.403297   2.161775   3.888465   3.411883   2.769043
    13  H    1.087227   3.871277   2.144345   3.394702   3.998287
    14  H    2.517111   4.484881   3.906535   4.709423   2.040166
    15  H    3.871047   1.086994   3.408063   2.160104   5.120906
    16  H    2.162128   3.396705   1.083254   2.146082   5.883888
    17  H    5.342441   6.395208   6.642402   7.094441   2.147170
    18  H    5.643328   6.508703   6.927810   7.299343   2.137330
    19  H    4.706954   6.291437   6.087283   6.768384   2.197798
    20  H    4.381655   2.533190   3.215450   1.974419   6.945297
                   11         12         13         14         15
    11  C    0.000000
    12  H    4.275908   0.000000
    13  H    4.779793   4.303075   0.000000
    14  H    2.511108   3.717149   2.278735   0.000000
    15  H    6.636578   2.481769   4.958266   5.447545   0.000000
    16  H    6.978698   4.971622   2.485300   4.599559   4.295248
    17  H    1.096510   4.711612   5.290578   3.098044   7.062159
    18  H    1.092500   4.683736   5.658545   3.421940   7.114277
    19  H    1.094324   4.903612   4.428722   2.207959   7.109451
    20  H    8.400715   4.644408   5.326316   6.653875   2.379313
                   16         17         18         19         20
    16  H    0.000000
    17  H    7.467437   0.000000
    18  H    7.796310   1.764303   0.000000
    19  H    6.798849   1.778044   1.781278   0.000000
    20  H    3.534319   8.848585   9.008979   8.651459   0.000000
 Stoichiometry    C8H9NO2
 Framework group  C1[X(C8H9NO2)]
 Deg. of freedom    54
 Full point group                 C1      NOp   1
 Largest Abelian subgroup         C1      NOp   1
 Largest concise Abelian subgroup C1      NOp   1
                         Standard orientation:                         
 ---------------------------------------------------------------------
 Center     Atomic      Atomic             Coordinates (Angstroms)
 Number     Number       Type             X           Y           Z
 ---------------------------------------------------------------------
      1          8           0        3.995624   -0.240986    0.013059
      2          8           0       -2.508383   -1.455332   -0.014616
      3          7           0       -1.549509    0.657510   -0.017424
      4          6           0       -0.162863    0.351761   -0.010358
      5          6           0        0.340150   -0.960328   -0.003984
      6          6           0        0.739543    1.432781   -0.009534
      7          6           0        1.722256   -1.172041    0.004083
      8          6           0        2.114430    1.216987   -0.001493
      9          6           0        2.609354   -0.091684    0.005504
     10          6           0       -2.621485   -0.209987   -0.013447
     11          6           0       -3.983184    0.460491    0.029706
     12          1           0       -0.348742   -1.791820   -0.006575
     13          1           0        0.361641    2.452204   -0.015053
     14          1           0       -1.768716    1.643390   -0.020762
     15          1           0        2.100660   -2.191033    0.008736
     16          1           0        2.813260    2.044680   -0.000729
     17          1           0       -4.392321    0.386340    1.044320
     18          1           0       -4.661689   -0.077443   -0.636487
     19          1           0       -3.960055    1.515753   -0.259143
     20          1           0        4.255392   -1.181982    0.017244
 ---------------------------------------------------------------------
 Rotational constants (GHZ):      3.5645827      0.5407882      0.4709539
 Standard basis: 6-31G (6D, 7F)
 There are   117 symmetry adapted cartesian basis functions of A   symmetry.
 There are   117 symmetry adapted basis functions of A   symmetry.
   117 basis functions,   278 primitive gaussians,   117 cartesian basis functions
    40 alpha electrons       40 beta electrons
       nuclear repulsion energy       567.9714759885 Hartrees.
 NAtoms=   20 NActive=   20 NUniq=   20 SFac= 1.00D+00 NAtFMM=   60 NAOKFM=F Big=F
 Integral buffers will be    262144 words long.
 Raffenetti 2 integral format.
 Two-electron integral symmetry is turned on.
 One-electron integrals computed using PRISM.
 NBasis=   117 RedAO= T EigKep=  5.94D-04  NBF=   117
 NBsUse=   117 1.00D-06 EigRej= -1.00D+00 NBFU=   117
 Initial guess from the checkpoint file:  "E:\Research\Paracetamol Project\paracetamol_opt_freq.chk"
 B after Tr=     0.000000    0.000000    0.000000
         Rot=    0.999999   -0.001177    0.000056    0.000090 Ang=  -0.14 deg.
 ExpMin= 1.61D-01 ExpMax= 5.48D+03 ExpMxC= 8.25D+02 IAcc=1 IRadAn=         1 AccDes= 0.00D+00
 Harris functional with IExCor=  402 and IRadAn=       1 diagonalized for initial guess.
 HarFok:  IExCor=  402 AccDes= 0.00D+00 IRadAn=         1 IDoV= 1 UseB2=F ITyADJ=14
 ICtDFT=  3500011 ScaDFX=  1.000000  1.000000  1.000000  1.000000
 FoFCou: FMM=F IPFlag=           0 FMFlag=      100000 FMFlg1=           0
         NFxFlg=           0 DoJE=T BraDBF=F KetDBF=T FulRan=T
         wScrn=  0.000000 ICntrl=     500 IOpCl=  0 I1Cent=   200000004 NGrid=           0
         NMat0=    1 NMatS0=      1 NMatT0=    0 NMatD0=    1 NMtDS0=    0 NMtDT0=    0
 Petite list used in FoFCou.
 Keep R1 ints in memory in canonical form, NReq=24825568.
 Requested convergence on RMS density matrix=1.00D-08 within 128 cycles.
 Requested convergence on MAX density matrix=1.00D-06.
 Requested convergence on             energy=1.00D-06.
 No special actions if energy rises.
 Integral accuracy reduced to 1.0D-05 until final iterations.
 Initial convergence to 1.0D-05 achieved.  Increase integral accuracy.
 SCF Done:  E(RB3LYP) =  -515.339618336     A.U. after   12 cycles
            NFock= 12  Conv=0.42D-08     -V/T= 2.0056
 Calling FoFJK, ICntrl=      2127 FMM=F ISym2X=0 I1Cent= 0 IOpClX= 0 NMat=1 NMatS=1 NMatT=0.
 ***** Axes restored to original set *****
 -------------------------------------------------------------------
 Center     Atomic                   Forces (Hartrees/Bohr)
 Number     Number              X              Y              Z
 -------------------------------------------------------------------
      1        8          -0.000021885    0.000118638   -0.000019233
      2        8           0.000057475    0.000052070    0.000138319
      3        7          -0.000260816    0.000600541    0.000100557
      4        6           0.000086005   -0.000073538    0.000057188
      5        6          -0.000221860   -0.000258280    0.000057602
      6        6           0.000044445    0.000021328   -0.000003144
      7        6           0.000165027    0.000087405    0.000006082
      8        6          -0.000024453   -0.000003099    0.000007178
      9        6           0.000012774   -0.000272292    0.000030995
     10        6           0.000178755   -0.000426032   -0.000364243
     11        6          -0.000053927    0.000215522   -0.000179831
     12        1          -0.000026719    0.000073341   -0.000060928
     13        1          -0.000019923    0.000036928   -0.000011712
     14        1          -0.000013845   -0.000047913   -0.000028061
     15        1          -0.000001725   -0.000019754    0.000001197
     16        1           0.000090004    0.000068806   -0.000008291
     17        1          -0.000026620   -0.000081061    0.000144665
     18        1           0.000071951   -0.000061441    0.000081289
     19        1          -0.000066617   -0.000082658    0.000051547
     20        1           0.000031953    0.000051492   -0.000001176
 -------------------------------------------------------------------
 Cartesian Forces:  Max     0.000600541 RMS     0.000144044

 GradGradGradGradGradGradGradGradGradGradGradGradGradGradGradGradGradGrad
 Berny optimization.
 Using GEDIIS/GDIIS optimizer.
 FormGI is forming the generalized inverse of G from B-inverse, IUseBI=4.
 Internal  Forces:  Max     0.000336663 RMS     0.000086586
 Search for a local minimum.
 Step number  23 out of a maximum of  101
 All quantities printed in internal units (Hartrees-Bohrs-Radians)
 Mixed Optimization -- En-DIIS/RFO-DIIS
 Swapping is turned off.
 Update second derivatives using D2CorX and points   19   21   22   23
 DE= -8.88D-05 DEPred=-8.26D-05 R= 1.08D+00
 TightC=F SS=  1.41D+00  RLast= 1.84D-01 DXNew= 8.9191D-02 5.5244D-01
 Trust test= 1.08D+00 RLast= 1.84D-01 DXMaxT set to 8.92D-02
 ITU=  1 -1  0  0 -1  0  0  0  0  0  0  0 -1  1  0  0 -1  0  1  1
 ITU=  1  1  0
     Eigenvalues ---    0.00026   0.01193   0.01694   0.01713   0.02037
     Eigenvalues ---    0.02151   0.02155   0.02157   0.02157   0.02158
     Eigenvalues ---    0.02160   0.02165   0.02174   0.02193   0.04076
     Eigenvalues ---    0.06825   0.07472   0.11786   0.13333   0.15572
     Eigenvalues ---    0.15998   0.16035   0.16054   0.16309   0.16551
     Eigenvalues ---    0.17656   0.18248   0.21963   0.22625   0.23078
     Eigenvalues ---    0.25082   0.26388   0.26893   0.31185   0.34357
     Eigenvalues ---    0.34516   0.34580   0.35127   0.35160   0.35198
     Eigenvalues ---    0.35503   0.37527   0.38608   0.42227   0.42725
     Eigenvalues ---    0.44418   0.45287   0.46709   0.47055   0.50093
     Eigenvalues ---    0.52445   0.52710   0.55019   0.85027
 En-DIIS/RFO-DIIS IScMMF=        0 using points:    23   22   21   20
 RFO step:  Lambda=-1.85900301D-06.
 DidBck=F Rises=F RFO-DIIS coefs:    2.06787   -0.42223   -0.33177   -0.31386
 Iteration  1 RMS(Cart)=  0.03501206 RMS(Int)=  0.00151854
 Iteration  2 RMS(Cart)=  0.00158827 RMS(Int)=  0.00000735
 Iteration  3 RMS(Cart)=  0.00000240 RMS(Int)=  0.00000712
 Iteration  4 RMS(Cart)=  0.00000000 RMS(Int)=  0.00000712
 Variable       Old X    -DE/DX   Delta X   Delta X   Delta X     New X
                                 (Linear)    (Quad)   (Total)
    R1        2.63486   0.00004   0.00026  -0.00033  -0.00007   2.63479
    R2        1.84475   0.00005   0.00014  -0.00004   0.00010   1.84485
    R3        2.36305   0.00005   0.00077  -0.00053   0.00025   2.36330
    R4        2.68336   0.00006   0.00062  -0.00060   0.00002   2.68338
    R5        2.60597  -0.00034  -0.00104  -0.00032  -0.00136   2.60461
    R6        1.90855   0.00005  -0.00014   0.00015   0.00001   1.90857
    R7        2.65548  -0.00018  -0.00042   0.00010  -0.00032   2.65516
    R8        2.66106   0.00009   0.00015  -0.00010   0.00004   2.66110
    R9        2.64231   0.00013   0.00065  -0.00050   0.00015   2.64246
   R10        2.04052   0.00007  -0.00014   0.00040   0.00026   2.04078
   R11        2.63001   0.00013   0.00005   0.00030   0.00035   2.63037
   R12        2.05456  -0.00003  -0.00007  -0.00001  -0.00008   2.05448
   R13        2.64164  -0.00001  -0.00045   0.00052   0.00007   2.64171
   R14        2.05412  -0.00002  -0.00006   0.00001  -0.00006   2.05406
   R15        2.64401  -0.00007   0.00025  -0.00054  -0.00029   2.64372
   R16        2.04705   0.00001  -0.00003   0.00006   0.00003   2.04709
   R17        2.86942   0.00006  -0.00068   0.00055  -0.00013   2.86929
   R18        2.07210  -0.00012  -0.00066  -0.00040  -0.00106   2.07105
   R19        2.06453  -0.00003   0.00112  -0.00021   0.00091   2.06543
   R20        2.06797   0.00009  -0.00040   0.00017  -0.00024   2.06774
    A1        1.94745   0.00004   0.00077  -0.00067   0.00009   1.94754
    A2        2.24418   0.00010   0.00003   0.00043   0.00046   2.24464
    A3        2.00662  -0.00004  -0.00024  -0.00018  -0.00043   2.00618
    A4        2.03237  -0.00006   0.00024  -0.00025  -0.00002   2.03235
    A5        2.15392  -0.00021   0.00012  -0.00123  -0.00111   2.15280
    A6        2.04936   0.00024  -0.00007   0.00118   0.00112   2.05048
    A7        2.07991  -0.00003  -0.00005   0.00005  -0.00001   2.07990
    A8        2.08890   0.00002   0.00014  -0.00017  -0.00003   2.08887
    A9        2.08361   0.00002   0.00019   0.00001   0.00021   2.08381
   A10        2.11068  -0.00004  -0.00033   0.00016  -0.00018   2.11050
   A11        2.11069   0.00002  -0.00007   0.00018   0.00011   2.11080
   A12        2.09100  -0.00005  -0.00027   0.00000  -0.00027   2.09073
   A13        2.08150   0.00002   0.00034  -0.00018   0.00016   2.08166
   A14        2.10628   0.00002  -0.00006   0.00009   0.00003   2.10631
   A15        2.07838   0.00000  -0.00001   0.00018   0.00017   2.07855
   A16        2.09853  -0.00002   0.00007  -0.00027  -0.00020   2.09833
   A17        2.08806  -0.00003   0.00013  -0.00033  -0.00020   2.08786
   A18        2.11629   0.00013   0.00045   0.00044   0.00090   2.11718
   A19        2.07884  -0.00010  -0.00058  -0.00012  -0.00070   2.07814
   A20        2.15099  -0.00018  -0.00017  -0.00103  -0.00120   2.14980
   A21        2.03966   0.00019   0.00025   0.00085   0.00110   2.04076
   A22        2.09253  -0.00001  -0.00008   0.00018   0.00010   2.09263
   A23        2.16057  -0.00016   0.00033  -0.00064  -0.00034   2.16024
   A24        2.11869  -0.00001  -0.00232   0.00040  -0.00195   2.11674
   A25        2.00360   0.00018   0.00221   0.00026   0.00244   2.00604
   A26        1.90821   0.00018  -0.00293   0.00148  -0.00146   1.90675
   A27        1.89885  -0.00009   0.00083  -0.00085  -0.00003   1.89882
   A28        1.98160   0.00006   0.00464  -0.00009   0.00454   1.98613
   A29        1.87466   0.00002  -0.00314   0.00058  -0.00257   1.87209
   A30        1.89371  -0.00009   0.00145  -0.00035   0.00111   1.89482
   A31        1.90391  -0.00007  -0.00124  -0.00072  -0.00199   1.90192
    D1       -0.00013   0.00001  -0.00017   0.00040   0.00023   0.00010
    D2       -3.14120   0.00000  -0.00041   0.00023  -0.00018  -3.14138
    D3        0.00551  -0.00002  -0.00182   0.00048  -0.00134   0.00416
    D4       -3.13586  -0.00003  -0.00216   0.00031  -0.00185  -3.13770
    D5        3.14077   0.00001  -0.00002   0.00080   0.00078   3.14154
    D6       -0.00059   0.00000  -0.00036   0.00063   0.00027  -0.00032
    D7       -0.01172  -0.00002   0.00282   0.00151   0.00433  -0.00739
    D8        3.10295   0.00015   0.00925   0.00281   0.01207   3.11501
    D9        3.13628  -0.00006   0.00101   0.00118   0.00218   3.13846
   D10       -0.03224   0.00012   0.00744   0.00248   0.00992  -0.02231
   D11       -3.14051  -0.00002  -0.00093  -0.00017  -0.00111   3.14157
   D12        0.00234  -0.00003  -0.00085  -0.00122  -0.00206   0.00028
   D13        0.00085  -0.00001  -0.00059   0.00000  -0.00060   0.00026
   D14       -3.13949  -0.00003  -0.00051  -0.00105  -0.00155  -3.14104
   D15        3.14051   0.00001   0.00055   0.00041   0.00096   3.14147
   D16       -0.00088   0.00001   0.00033   0.00064   0.00097   0.00009
   D17       -0.00086   0.00001   0.00023   0.00025   0.00048  -0.00038
   D18        3.14093   0.00001   0.00001   0.00048   0.00049   3.14142
   D19       -0.00031   0.00001   0.00059  -0.00029   0.00030  -0.00001
   D20       -3.14135   0.00000   0.00017  -0.00024  -0.00006  -3.14141
   D21        3.14001   0.00002   0.00051   0.00077   0.00128   3.14129
   D22       -0.00103   0.00001   0.00009   0.00082   0.00091  -0.00012
   D23        0.00031   0.00000   0.00014  -0.00020  -0.00006   0.00026
   D24       -3.14150   0.00000  -0.00003   0.00016   0.00014  -3.14136
   D25       -3.14148   0.00000   0.00036  -0.00044  -0.00007  -3.14155
   D26       -0.00010   0.00000   0.00020  -0.00007   0.00012   0.00002
   D27       -3.14130  -0.00001  -0.00047   0.00016  -0.00030   3.14159
   D28       -0.00025   0.00000  -0.00022   0.00034   0.00012  -0.00012
   D29       -0.00027   0.00000  -0.00005   0.00012   0.00007  -0.00020
   D30        3.14079   0.00001   0.00020   0.00029   0.00049   3.14128
   D31        3.14133   0.00000   0.00008   0.00007   0.00015   3.14148
   D32        0.00025   0.00000  -0.00015  -0.00009  -0.00025   0.00000
   D33       -0.00005   0.00000   0.00024  -0.00028  -0.00004  -0.00009
   D34       -3.14114  -0.00001   0.00001  -0.00045  -0.00044  -3.14157
   D35        1.31324   0.00007  -0.10248   0.00101  -0.10146   1.21178
   D36       -0.72921   0.00001  -0.09752  -0.00003  -0.09755  -0.82676
   D37       -2.85273   0.00013  -0.09958   0.00157  -0.09802  -2.95075
   D38       -1.80214  -0.00010  -0.10878  -0.00024  -0.10901  -1.91116
   D39        2.43859  -0.00016  -0.10382  -0.00128  -0.10510   2.33349
   D40        0.31508  -0.00005  -0.10588   0.00032  -0.10557   0.20950
         Item               Value     Threshold  Converged?
 Maximum Force            0.000337     0.000450     YES
 RMS     Force            0.000087     0.000300     YES
 Maximum Displacement     0.157132     0.001800     NO 
 RMS     Displacement     0.035032     0.001200     NO 
 Predicted change in Energy=-5.242819D-06
 GradGradGradGradGradGradGradGradGradGradGradGradGradGradGradGradGradGrad

                          Input orientation:                          
 ---------------------------------------------------------------------
 Center     Atomic      Atomic             Coordinates (Angstroms)
 Number     Number       Type             X           Y           Z
 ---------------------------------------------------------------------
      1          8           0        3.923039    0.383489    0.008381
      2          8           0       -2.616921    1.364149   -0.120960
      3          7           0       -1.587487   -0.708111    0.040655
      4          6           0       -0.211965   -0.355841    0.026766
      5          6           0        0.244981    0.969591   -0.065921
      6          6           0        0.727534   -1.401399    0.111358
      7          6           0        1.618928    1.229476   -0.073067
      8          6           0        2.094252   -1.137789    0.103730
      9          6           0        2.543115    0.184001    0.011080
     10          6           0       -2.687813    0.118623   -0.033523
     11          6           0       -4.027298   -0.596343   -0.028081
     12          1           0       -0.472371    1.774267   -0.130455
     13          1           0        0.385109   -2.430716    0.183607
     14          1           0       -1.772896   -1.698406    0.111198
     15          1           0        1.961799    2.258438   -0.144951
     16          1           0        2.822115   -1.937494    0.168292
     17          1           0       -4.483502   -0.516508   -1.021364
     18          1           0       -4.693197   -0.091240    0.676232
     19          1           0       -3.961663   -1.654887    0.241081
     20          1           0        4.148840    1.330901   -0.058658
 ---------------------------------------------------------------------
                    Distance matrix (angstroms):
                    1          2          3          4          5
     1  O    0.000000
     2  O    6.614341   0.000000
     3  N    5.617698   2.319507   0.000000
     4  C    4.200619   2.960406   1.419982   0.000000
     5  C    3.725204   2.889497   2.486761   1.405049   0.000000
     6  C    3.661650   4.345988   2.417638   1.408192   2.426084
     7  C    2.455862   4.238260   3.748102   2.423915   1.398328
     8  C    2.380722   5.339039   3.707264   2.436391   2.808850
     9  C    1.394272   5.294918   4.225945   2.807514   2.429918
    10  C    6.616289   1.250602   1.378299   2.521622   3.053929
    11  C    8.010572   2.416882   2.443337   3.823300   4.550380
    12  H    4.612284   2.183434   2.726712   2.151718   1.079935
    13  H    4.524092   4.848293   2.622773   2.164764   3.412330
    14  H    6.065356   3.185203   1.009969   2.060611   3.349837
    15  H    2.717610   4.665299   4.629502   3.404290   2.148217
    16  H    2.573823   6.369272   4.579548   3.424513   3.891994
    17  H    8.517059   2.798521   3.090549   4.401184   5.047763
    18  H    8.655109   2.657930   3.229539   4.535776   5.105072
    19  H    8.147248   3.324752   2.563838   3.974127   4.967694
    20  H    0.976253   6.766130   6.088750   4.676432   3.920550
                    6          7          8          9         10
     6  C    0.000000
     7  C    2.783900   0.000000
     8  C    1.391929   2.420978   0.000000
     9  C    2.412443   1.397934   1.398996   0.000000
    10  C    3.741130   4.447874   4.946267   5.231527   0.000000
    11  C    4.824520   5.934266   6.146863   6.616706   1.518363
    12  H    3.403395   2.161856   3.888761   3.412057   2.767443
    13  H    1.087184   3.871072   2.144578   3.394628   3.998640
    14  H    2.518008   4.484520   3.907581   4.709717   2.039512
    15  H    3.870854   1.086964   3.407894   2.159991   5.119582
    16  H    2.162847   3.396411   1.083273   2.145529   5.884527
    17  H    5.405644   6.417739   6.702139   7.136525   2.145628
    18  H    5.605348   6.492200   6.891480   7.272028   2.137605
    19  H    4.697835   6.289772   6.079503   6.763619   2.200780
    20  H    4.381747   2.531985   3.215918   1.974487   6.943348
                   11         12         13         14         15
    11  C    0.000000
    12  H    4.274083   0.000000
    13  H    4.783207   4.302998   0.000000
    14  H    2.513219   3.716076   2.280023   0.000000
    15  H    6.635716   2.481897   4.958031   5.447034   0.000000
    16  H    6.982243   4.971926   2.486464   4.601581   4.294660
    17  H    1.095950   4.704311   5.368381   3.166537   7.071798
    18  H    1.092981   4.684681   5.612933   3.380888   7.105231
    19  H    1.094198   4.906352   4.415839   2.193049   7.109890
    20  H    8.400265   4.642986   5.326738   6.653760   2.377166
                   16         17         18         19         20
    16  H    0.000000
    17  H    7.537010   0.000000
    18  H    7.755422   1.762571   0.000000
    19  H    6.790052   1.778198   1.780307   0.000000
    20  H    3.534701   8.880149   8.985776   8.647834   0.000000
 Stoichiometry    C8H9NO2
 Framework group  C1[X(C8H9NO2)]
 Deg. of freedom    54
 Full point group                 C1      NOp   1
 Largest Abelian subgroup         C1      NOp   1
 Largest concise Abelian subgroup C1      NOp   1
                         Standard orientation:                         
 ---------------------------------------------------------------------
 Center     Atomic      Atomic             Coordinates (Angstroms)
 Number     Number       Type             X           Y           Z
 ---------------------------------------------------------------------
      1          8           0        3.995393   -0.243401    0.008517
      2          8           0       -2.507134   -1.454318   -0.009457
      3          7           0       -1.549437    0.658245   -0.011978
      4          6           0       -0.162612    0.353226   -0.006683
      5          6           0        0.339584   -0.959002   -0.002479
      6          6           0        0.740444    1.433732   -0.006008
      7          6           0        1.721662   -1.171500    0.002601
      8          6           0        2.115424    1.217239   -0.000796
      9          6           0        2.609415   -0.091632    0.003533
     10          6           0       -2.620781   -0.208890   -0.009488
     11          6           0       -3.984376    0.458331    0.019703
     12          1           0       -0.349719   -1.790339   -0.003499
     13          1           0        0.362872    2.453241   -0.009394
     14          1           0       -1.768745    1.644113   -0.014556
     15          1           0        2.099671   -2.190613    0.005654
     16          1           0        2.815406    2.043982   -0.000030
     17          1           0       -4.446837    0.292546    0.999372
     18          1           0       -4.625511   -0.017984   -0.726404
     19          1           0       -3.953324    1.534948   -0.173177
     20          1           0        4.253598   -1.184886    0.011109
 ---------------------------------------------------------------------
 Rotational constants (GHZ):      3.5661830      0.5407648      0.4709450
 Standard basis: 6-31G (6D, 7F)
 There are   117 symmetry adapted cartesian basis functions of A   symmetry.
 There are   117 symmetry adapted basis functions of A   symmetry.
   117 basis functions,   278 primitive gaussians,   117 cartesian basis functions
    40 alpha electrons       40 beta electrons
       nuclear repulsion energy       567.9902563595 Hartrees.
 NAtoms=   20 NActive=   20 NUniq=   20 SFac= 1.00D+00 NAtFMM=   60 NAOKFM=F Big=F
 Integral buffers will be    262144 words long.
 Raffenetti 2 integral format.
 Two-electron integral symmetry is turned on.
 One-electron integrals computed using PRISM.
 NBasis=   117 RedAO= T EigKep=  5.94D-04  NBF=   117
 NBsUse=   117 1.00D-06 EigRej= -1.00D+00 NBFU=   117
 Initial guess from the checkpoint file:  "E:\Research\Paracetamol Project\paracetamol_opt_freq.chk"
 B after Tr=     0.000000    0.000000    0.000000
         Rot=    0.999999   -0.001684    0.000160    0.000014 Ang=  -0.19 deg.
 ExpMin= 1.61D-01 ExpMax= 5.48D+03 ExpMxC= 8.25D+02 IAcc=1 IRadAn=         1 AccDes= 0.00D+00
 Harris functional with IExCor=  402 and IRadAn=       1 diagonalized for initial guess.
 HarFok:  IExCor=  402 AccDes= 0.00D+00 IRadAn=         1 IDoV= 1 UseB2=F ITyADJ=14
 ICtDFT=  3500011 ScaDFX=  1.000000  1.000000  1.000000  1.000000
 FoFCou: FMM=F IPFlag=           0 FMFlag=      100000 FMFlg1=           0
         NFxFlg=           0 DoJE=T BraDBF=F KetDBF=T FulRan=T
         wScrn=  0.000000 ICntrl=     500 IOpCl=  0 I1Cent=   200000004 NGrid=           0
         NMat0=    1 NMatS0=      1 NMatT0=    0 NMatD0=    1 NMtDS0=    0 NMtDT0=    0
 Petite list used in FoFCou.
 Keep R1 ints in memory in canonical form, NReq=24825568.
 Requested convergence on RMS density matrix=1.00D-08 within 128 cycles.
 Requested convergence on MAX density matrix=1.00D-06.
 Requested convergence on             energy=1.00D-06.
 No special actions if energy rises.
 Integral accuracy reduced to 1.0D-05 until final iterations.
 Initial convergence to 1.0D-05 achieved.  Increase integral accuracy.
 SCF Done:  E(RB3LYP) =  -515.339631701     A.U. after   12 cycles
            NFock= 12  Conv=0.28D-08     -V/T= 2.0056
 Calling FoFJK, ICntrl=      2127 FMM=F ISym2X=0 I1Cent= 0 IOpClX= 0 NMat=1 NMatS=1 NMatT=0.
 ***** Axes restored to original set *****
 -------------------------------------------------------------------
 Center     Atomic                   Forces (Hartrees/Bohr)
 Number     Number              X              Y              Z
 -------------------------------------------------------------------
      1        8           0.000031649   -0.000034089    0.000002709
      2        8          -0.000045933    0.000114827    0.000104576
      3        7          -0.000011882   -0.000135138    0.000083687
      4        6           0.000049748    0.000089203    0.000062693
      5        6           0.000005559    0.000033859   -0.000009043
      6        6           0.000018831   -0.000021367    0.000004550
      7        6          -0.000003218    0.000007003   -0.000006944
      8        6          -0.000046031   -0.000037368   -0.000001376
      9        6          -0.000003781    0.000102987   -0.000006111
     10        6           0.000033974   -0.000129916   -0.000361781
     11        6          -0.000146948    0.000147574   -0.000127963
     12        1           0.000025322   -0.000024515    0.000002663
     13        1           0.000000896   -0.000004229    0.000001297
     14        1          -0.000012854   -0.000003501   -0.000019411
     15        1          -0.000013896    0.000006651   -0.000003273
     16        1          -0.000005363   -0.000000800    0.000001672
     17        1           0.000091241   -0.000033928    0.000082873
     18        1          -0.000060808   -0.000018177    0.000143234
     19        1           0.000100536   -0.000051380    0.000044023
     20        1          -0.000007042   -0.000007696    0.000001925
 -------------------------------------------------------------------
 Cartesian Forces:  Max     0.000361781 RMS     0.000076485

 GradGradGradGradGradGradGradGradGradGradGradGradGradGradGradGradGradGrad
 Berny optimization.
 Using GEDIIS/GDIIS optimizer.
 FormGI is forming the generalized inverse of G from B-inverse, IUseBI=4.
 GSVD:  received Info=                   1 from GESDD.
 Internal  Forces:  Max     0.000171363 RMS     0.000051633
 Search for a local minimum.
 Step number  24 out of a maximum of  101
 All quantities printed in internal units (Hartrees-Bohrs-Radians)
 Mixed Optimization -- En-DIIS/RFO-DIIS
 Swapping is turned off.
 Update second derivatives using D2CorX and points   19   21   22   23   24
 DE= -1.34D-05 DEPred=-5.24D-06 R= 2.55D+00
 TightC=F SS=  1.41D+00  RLast= 2.53D-01 DXNew= 1.5000D-01 7.5798D-01
 Trust test= 2.55D+00 RLast= 2.53D-01 DXMaxT set to 1.50D-01
 ITU=  1  1 -1  0  0 -1  0  0  0  0  0  0  0 -1  1  0  0 -1  0  1
 ITU=  1  1  1  0
     Eigenvalues ---    0.00010   0.01165   0.01615   0.01710   0.02039
     Eigenvalues ---    0.02148   0.02156   0.02157   0.02157   0.02158
     Eigenvalues ---    0.02161   0.02169   0.02180   0.02194   0.03700
     Eigenvalues ---    0.06760   0.07416   0.11948   0.13374   0.15811
     Eigenvalues ---    0.15991   0.16030   0.16136   0.16325   0.17007
     Eigenvalues ---    0.17868   0.19046   0.22042   0.22677   0.23167
     Eigenvalues ---    0.25098   0.26391   0.27734   0.31216   0.34170
     Eigenvalues ---    0.34524   0.34602   0.35160   0.35193   0.35219
     Eigenvalues ---    0.35552   0.37780   0.39388   0.42263   0.43272
     Eigenvalues ---    0.44465   0.45284   0.46829   0.47632   0.50901
     Eigenvalues ---    0.52663   0.53557   0.54991   0.85133
 Eigenvalue     1 is   9.85D-05 Eigenvector:
                          D38       D40       D39       D35       D37
   1                   -0.42699  -0.41734  -0.41055  -0.40525  -0.39560
                          D36       D8        D10       A28       D7
   1                   -0.38881   0.03448   0.02815   0.01513   0.01223
 En-DIIS/RFO-DIIS IScMMF=        0 using points:    24   23   22   21   20
 RFO step:  Lambda=-7.27797259D-07.
 DidBck=F Rises=F RFO-DIIS coefs:    0.88877    0.84404   -0.24612   -0.25939   -0.22730
 Iteration  1 RMS(Cart)=  0.02062790 RMS(Int)=  0.00052958
 Iteration  2 RMS(Cart)=  0.00055254 RMS(Int)=  0.00000689
 Iteration  3 RMS(Cart)=  0.00000029 RMS(Int)=  0.00000689
 Variable       Old X    -DE/DX   Delta X   Delta X   Delta X     New X
                                 (Linear)    (Quad)   (Total)
    R1        2.63479   0.00002   0.00002  -0.00007  -0.00005   2.63474
    R2        1.84485  -0.00001   0.00003  -0.00005  -0.00002   1.84483
    R3        2.36330   0.00011   0.00036  -0.00011   0.00025   2.36354
    R4        2.68338   0.00007   0.00017  -0.00005   0.00011   2.68349
    R5        2.60461   0.00006  -0.00026  -0.00001  -0.00026   2.60435
    R6        1.90857   0.00000  -0.00014   0.00000  -0.00014   1.90843
    R7        2.65516   0.00003   0.00004  -0.00010  -0.00005   2.65511
    R8        2.66110  -0.00001  -0.00002   0.00006   0.00003   2.66113
    R9        2.64246   0.00002   0.00012  -0.00006   0.00005   2.64251
   R10        2.04078  -0.00004  -0.00015   0.00010  -0.00005   2.04073
   R11        2.63037  -0.00006  -0.00007  -0.00008  -0.00015   2.63022
   R12        2.05448   0.00001   0.00002  -0.00002   0.00001   2.05449
   R13        2.64171   0.00002  -0.00019   0.00021   0.00002   2.64174
   R14        2.05406   0.00000   0.00001  -0.00002  -0.00001   2.05405
   R15        2.64372   0.00004   0.00021  -0.00009   0.00012   2.64384
   R16        2.04709   0.00000  -0.00004   0.00004   0.00000   2.04709
   R17        2.86929  -0.00001  -0.00037   0.00022  -0.00014   2.86915
   R18        2.07105  -0.00011  -0.00047  -0.00024  -0.00071   2.07034
   R19        2.06543   0.00012   0.00085   0.00007   0.00092   2.06635
   R20        2.06774   0.00006  -0.00030   0.00013  -0.00017   2.06757
    A1        1.94754   0.00000   0.00041  -0.00035   0.00006   1.94760
    A2        2.24464   0.00008  -0.00042   0.00026  -0.00016   2.24448
    A3        2.00618  -0.00003   0.00000  -0.00002  -0.00002   2.00616
    A4        2.03235  -0.00006   0.00044  -0.00025   0.00019   2.03254
    A5        2.15280   0.00013   0.00051  -0.00020   0.00031   2.15311
    A6        2.05048  -0.00013  -0.00044   0.00007  -0.00037   2.05011
    A7        2.07990   0.00001  -0.00007   0.00013   0.00006   2.07997
    A8        2.08887   0.00000   0.00010  -0.00012  -0.00002   2.08885
    A9        2.08381   0.00001  -0.00018   0.00020   0.00002   2.08383
   A10        2.11050   0.00000   0.00007  -0.00008  -0.00001   2.11050
   A11        2.11080   0.00000  -0.00005   0.00002  -0.00003   2.11077
   A12        2.09073   0.00000   0.00003  -0.00002   0.00002   2.09074
   A13        2.08166   0.00000   0.00002  -0.00001   0.00001   2.08167
   A14        2.10631  -0.00001  -0.00002  -0.00002  -0.00003   2.10627
   A15        2.07855   0.00000   0.00002  -0.00010  -0.00009   2.07846
   A16        2.09833   0.00002   0.00000   0.00012   0.00012   2.09845
   A17        2.08786   0.00002   0.00014  -0.00012   0.00003   2.08789
   A18        2.11718  -0.00002  -0.00025   0.00022  -0.00003   2.11716
   A19        2.07814   0.00000   0.00010  -0.00010   0.00000   2.07814
   A20        2.14980   0.00008   0.00023   0.00004   0.00027   2.15007
   A21        2.04076  -0.00007  -0.00012  -0.00014  -0.00026   2.04050
   A22        2.09263  -0.00001  -0.00011   0.00010  -0.00001   2.09262
   A23        2.16024   0.00011   0.00035  -0.00006   0.00025   2.16049
   A24        2.11674   0.00000  -0.00118   0.00017  -0.00105   2.11570
   A25        2.00604  -0.00011   0.00100  -0.00010   0.00086   2.00691
   A26        1.90675   0.00000  -0.00188   0.00040  -0.00148   1.90527
   A27        1.89882   0.00007   0.00070   0.00012   0.00081   1.89963
   A28        1.98613  -0.00017   0.00230  -0.00082   0.00148   1.98761
   A29        1.87209   0.00006  -0.00179   0.00069  -0.00111   1.87098
   A30        1.89482   0.00006   0.00137  -0.00027   0.00111   1.89593
   A31        1.90192   0.00000  -0.00090  -0.00004  -0.00095   1.90097
    D1        0.00010   0.00000  -0.00054   0.00035  -0.00020  -0.00010
    D2       -3.14138   0.00000  -0.00050   0.00027  -0.00023   3.14158
    D3        0.00416  -0.00002  -0.00247   0.00032  -0.00215   0.00201
    D4       -3.13770  -0.00001  -0.00269   0.00065  -0.00205  -3.13975
    D5        3.14154   0.00000  -0.00083   0.00002  -0.00082   3.14073
    D6       -0.00032   0.00001  -0.00106   0.00035  -0.00072  -0.00103
    D7       -0.00739  -0.00002   0.00295  -0.00056   0.00238  -0.00501
    D8        3.11501   0.00011   0.00725  -0.00019   0.00707   3.12209
    D9        3.13846  -0.00004   0.00130  -0.00026   0.00103   3.13949
   D10       -0.02231   0.00009   0.00561   0.00012   0.00572  -0.01659
   D11        3.14157   0.00000  -0.00052   0.00046  -0.00006   3.14152
   D12        0.00028   0.00000  -0.00028   0.00007  -0.00021   0.00006
   D13        0.00026   0.00000  -0.00029   0.00013  -0.00016   0.00009
   D14       -3.14104   0.00000  -0.00005  -0.00027  -0.00032  -3.14136
   D15        3.14147   0.00000   0.00027  -0.00019   0.00008   3.14155
   D16        0.00009   0.00000   0.00002   0.00002   0.00004   0.00014
   D17       -0.00038   0.00000   0.00005   0.00013   0.00018  -0.00020
   D18        3.14142   0.00000  -0.00020   0.00034   0.00014   3.14157
   D19       -0.00001   0.00000   0.00037  -0.00035   0.00002   0.00001
   D20       -3.14141   0.00000   0.00015  -0.00015  -0.00001  -3.14142
   D21        3.14129   0.00000   0.00013   0.00005   0.00018   3.14146
   D22       -0.00012   0.00000  -0.00010   0.00025   0.00015   0.00003
   D23        0.00026   0.00000   0.00011  -0.00016  -0.00006   0.00020
   D24       -3.14136   0.00000  -0.00011   0.00006  -0.00005  -3.14141
   D25       -3.14155   0.00000   0.00036  -0.00037  -0.00002  -3.14157
   D26        0.00002   0.00000   0.00014  -0.00015  -0.00001   0.00001
   D27        3.14159   0.00000  -0.00017   0.00024   0.00008  -3.14152
   D28       -0.00012   0.00000  -0.00021   0.00032   0.00011  -0.00002
   D29       -0.00020   0.00000   0.00006   0.00004   0.00010  -0.00009
   D30        3.14128   0.00000   0.00002   0.00012   0.00013   3.14141
   D31        3.14148   0.00000  -0.00007   0.00001  -0.00006   3.14142
   D32        0.00000   0.00000  -0.00003  -0.00006  -0.00009  -0.00009
   D33       -0.00009   0.00000   0.00014  -0.00021  -0.00007  -0.00016
   D34       -3.14157   0.00000   0.00018  -0.00028  -0.00010   3.14152
   D35        1.21178   0.00010  -0.05796  -0.00070  -0.05866   1.15311
   D36       -0.82676   0.00000  -0.05514  -0.00182  -0.05696  -0.88372
   D37       -2.95075   0.00006  -0.05600  -0.00131  -0.05732  -3.00807
   D38       -1.91116  -0.00002  -0.06218  -0.00106  -0.06324  -1.97440
   D39        2.33349  -0.00013  -0.05936  -0.00218  -0.06154   2.27195
   D40        0.20950  -0.00007  -0.06022  -0.00167  -0.06190   0.14760
         Item               Value     Threshold  Converged?
 Maximum Force            0.000171     0.000450     YES
 RMS     Force            0.000052     0.000300     YES
 Maximum Displacement     0.095499     0.001800     NO 
 RMS     Displacement     0.020632     0.001200     NO 
 Predicted change in Energy=-4.488406D-06
 GradGradGradGradGradGradGradGradGradGradGradGradGradGradGradGradGradGrad

                          Input orientation:                          
 ---------------------------------------------------------------------
 Center     Atomic      Atomic             Coordinates (Angstroms)
 Number     Number       Type             X           Y           Z
 ---------------------------------------------------------------------
      1          8           0        3.923186    0.383794    0.014076
      2          8           0       -2.617116    1.362356   -0.135363
      3          7           0       -1.587110   -0.708906    0.037136
      4          6           0       -0.211690   -0.355935    0.025034
      5          6           0        0.245179    0.969095   -0.073211
      6          6           0        0.727776   -1.400897    0.117311
      7          6           0        1.619109    1.229270   -0.077997
      8          6           0        2.094378   -1.137041    0.112029
      9          6           0        2.543272    0.184417    0.013967
     10          6           0       -2.687468    0.117110   -0.041827
     11          6           0       -4.027499   -0.596544   -0.027393
     12          1           0       -0.472153    1.773233   -0.143937
     13          1           0        0.385356   -2.429916    0.193773
     14          1           0       -1.772120   -1.698922    0.111500
     15          1           0        1.961853    2.257956   -0.154238
     16          1           0        2.822209   -1.936272    0.182538
     17          1           0       -4.513463   -0.468883   -1.000956
     18          1           0       -4.671161   -0.124090    0.719708
     19          1           0       -3.957244   -1.666425    0.190545
     20          1           0        4.149306    1.330802   -0.057295
 ---------------------------------------------------------------------
                    Distance matrix (angstroms):
                    1          2          3          4          5
     1  O    0.000000
     2  O    6.614792   0.000000
     3  N    5.617641   2.319654   0.000000
     4  C    4.200538   2.960461   1.420041   0.000000
     5  C    3.725310   2.889853   2.486996   1.405021   0.000000
     6  C    3.661479   4.346000   2.417432   1.408211   2.426121
     7  C    2.456029   4.238704   3.748283   2.423905   1.398356
     8  C    2.380562   5.339136   3.707056   2.436318   2.808854
     9  C    1.394243   5.295229   4.225946   2.807475   2.429929
    10  C    6.616268   1.250734   1.378161   2.521452   3.054060
    11  C    8.011004   2.416221   2.443826   3.823747   4.550725
    12  H    4.612431   2.183978   2.727074   2.151685   1.079910
    13  H    4.523881   4.848143   2.622410   2.164794   3.412361
    14  H    6.064958   3.185338   1.009896   2.060591   3.349914
    15  H    2.718022   4.665770   4.629690   3.404240   2.148184
    16  H    2.573565   6.369322   4.579265   3.424444   3.891998
    17  H    8.540164   2.774674   3.114287   4.423874   5.056991
    18  H    8.638209   2.675773   3.212364   4.519204   5.098447
    19  H    8.144674   3.328013   2.560842   3.971644   4.967483
    20  H    0.976242   6.766946   6.088990   4.676553   3.920880
                    6          7          8          9         10
     6  C    0.000000
     7  C    2.783954   0.000000
     8  C    1.391851   2.421037   0.000000
     9  C    2.412453   1.397946   1.399062   0.000000
    10  C    3.740797   4.448013   4.945971   5.231471   0.000000
    11  C    4.824994   5.934673   6.147272   6.617148   1.518286
    12  H    3.403408   2.161856   3.888740   3.412046   2.767813
    13  H    1.087188   3.871130   2.144520   3.394653   3.998137
    14  H    2.517605   4.484491   3.907112   4.709468   2.039447
    15  H    3.870903   1.086959   3.408000   2.160070   5.119770
    16  H    2.162760   3.396467   1.083272   2.145587   5.884154
    17  H    5.439646   6.429931   6.734147   7.159216   2.144195
    18  H    5.580469   6.483472   6.867886   7.255431   2.138492
    19  H    4.693110   6.289108   6.075240   6.761176   2.201664
    20  H    4.381727   2.532318   3.215843   1.974493   6.943686
                   11         12         13         14         15
    11  C    0.000000
    12  H    4.274331   0.000000
    13  H    4.783666   4.303003   0.000000
    14  H    2.514212   3.716318   2.279436   0.000000
    15  H    6.636007   2.481823   4.958084   5.447022   0.000000
    16  H    6.982653   4.971905   2.486376   4.601005   4.294785
    17  H    1.095574   4.700399   5.410310   3.203984   7.076884
    18  H    1.093468   4.688004   5.582276   3.354765   7.101745
    19  H    1.094111   4.908053   4.409207   2.186794   7.110228
    20  H    8.400934   4.643398   5.326664   6.653646   2.377807
                   16         17         18         19         20
    16  H    0.000000
    17  H    7.574033   0.000000
    18  H    7.728075   1.761940   0.000000
    19  H    6.784826   1.778527   1.780025   0.000000
    20  H    3.534470   8.897917   8.973354   8.646441   0.000000
 Stoichiometry    C8H9NO2
 Framework group  C1[X(C8H9NO2)]
 Deg. of freedom    54
 Full point group                 C1      NOp   1
 Largest Abelian subgroup         C1      NOp   1
 Largest concise Abelian subgroup C1      NOp   1
                         Standard orientation:                         
 ---------------------------------------------------------------------
 Center     Atomic      Atomic             Coordinates (Angstroms)
 Number     Number       Type             X           Y           Z
 ---------------------------------------------------------------------
      1          8           0        3.995529   -0.243220    0.005877
      2          8           0       -2.507520   -1.453858   -0.007716
      3          7           0       -1.549235    0.658601   -0.008374
      4          6           0       -0.162457    0.353072   -0.004587
      5          6           0        0.339668   -0.959157   -0.001188
      6          6           0        0.740597    1.433604   -0.004491
      7          6           0        1.721770   -1.171708    0.002338
      8          6           0        2.115501    1.217096   -0.000850
      9          6           0        2.609533   -0.091833    0.002530
     10          6           0       -2.620634   -0.208250   -0.007271
     11          6           0       -3.984714    0.458086    0.014510
     12          1           0       -0.349645   -1.790453   -0.001469
     13          1           0        0.363025    2.453119   -0.007129
     14          1           0       -1.768155    1.644482   -0.009760
     15          1           0        2.099657   -2.190862    0.004784
     16          1           0        2.815476    2.043846   -0.000584
     17          1           0       -4.476404    0.239811    0.968910
     18          1           0       -4.603218    0.022341   -0.774953
     19          1           0       -3.949796    1.543272   -0.120509
     20          1           0        4.254049   -1.184607    0.008104
 ---------------------------------------------------------------------
 Rotational constants (GHZ):      3.5669614      0.5407040      0.4709055
 Standard basis: 6-31G (6D, 7F)
 There are   117 symmetry adapted cartesian basis functions of A   symmetry.
 There are   117 symmetry adapted basis functions of A   symmetry.
   117 basis functions,   278 primitive gaussians,   117 cartesian basis functions
    40 alpha electrons       40 beta electrons
       nuclear repulsion energy       567.9825997414 Hartrees.
 NAtoms=   20 NActive=   20 NUniq=   20 SFac= 1.00D+00 NAtFMM=   60 NAOKFM=F Big=F
 Integral buffers will be    262144 words long.
 Raffenetti 2 integral format.
 Two-electron integral symmetry is turned on.
 One-electron integrals computed using PRISM.
 NBasis=   117 RedAO= T EigKep=  5.94D-04  NBF=   117
 NBsUse=   117 1.00D-06 EigRej= -1.00D+00 NBFU=   117
 Initial guess from the checkpoint file:  "E:\Research\Paracetamol Project\paracetamol_opt_freq.chk"
 B after Tr=     0.000000    0.000000    0.000000
         Rot=    1.000000   -0.000994    0.000090    0.000006 Ang=  -0.11 deg.
 ExpMin= 1.61D-01 ExpMax= 5.48D+03 ExpMxC= 8.25D+02 IAcc=1 IRadAn=         1 AccDes= 0.00D+00
 Harris functional with IExCor=  402 and IRadAn=       1 diagonalized for initial guess.
 HarFok:  IExCor=  402 AccDes= 0.00D+00 IRadAn=         1 IDoV= 1 UseB2=F ITyADJ=14
 ICtDFT=  3500011 ScaDFX=  1.000000  1.000000  1.000000  1.000000
 FoFCou: FMM=F IPFlag=           0 FMFlag=      100000 FMFlg1=           0
         NFxFlg=           0 DoJE=T BraDBF=F KetDBF=T FulRan=T
         wScrn=  0.000000 ICntrl=     500 IOpCl=  0 I1Cent=   200000004 NGrid=           0
         NMat0=    1 NMatS0=      1 NMatT0=    0 NMatD0=    1 NMtDS0=    0 NMtDT0=    0
 Petite list used in FoFCou.
 Keep R1 ints in memory in canonical form, NReq=24825568.
 Requested convergence on RMS density matrix=1.00D-08 within 128 cycles.
 Requested convergence on MAX density matrix=1.00D-06.
 Requested convergence on             energy=1.00D-06.
 No special actions if energy rises.
 Integral accuracy reduced to 1.0D-05 until final iterations.
 Initial convergence to 1.0D-05 achieved.  Increase integral accuracy.
 SCF Done:  E(RB3LYP) =  -515.339635707     A.U. after   11 cycles
            NFock= 11  Conv=0.52D-08     -V/T= 2.0056
 Calling FoFJK, ICntrl=      2127 FMM=F ISym2X=0 I1Cent= 0 IOpClX= 0 NMat=1 NMatS=1 NMatT=0.
 ***** Axes restored to original set *****
 -------------------------------------------------------------------
 Center     Atomic                   Forces (Hartrees/Bohr)
 Number     Number              X              Y              Z
 -------------------------------------------------------------------
      1        8           0.000031234   -0.000004721   -0.000002540
      2        8           0.000028346    0.000005455    0.000111607
      3        7           0.000021848   -0.000034880    0.000064965
      4        6           0.000018768    0.000010543    0.000056300
      5        6          -0.000002940    0.000012488   -0.000014964
      6        6           0.000002629   -0.000007973    0.000001437
      7        6           0.000011779   -0.000002884   -0.000001837
      8        6          -0.000008750   -0.000005831   -0.000004483
      9        6          -0.000031336    0.000038717   -0.000001396
     10        6          -0.000030912    0.000018371   -0.000347899
     11        6          -0.000211820    0.000163693   -0.000065291
     12        1           0.000003704   -0.000008524    0.000012490
     13        1          -0.000000388    0.000000345    0.000003902
     14        1          -0.000025701   -0.000034968   -0.000009669
     15        1          -0.000002322    0.000003959   -0.000003585
     16        1           0.000001313    0.000005181    0.000002003
     17        1           0.000100391   -0.000055435    0.000053670
     18        1          -0.000016861   -0.000043112    0.000107098
     19        1           0.000114997   -0.000066220    0.000036418
     20        1          -0.000003977    0.000005796    0.000001774
 -------------------------------------------------------------------
 Cartesian Forces:  Max     0.000347899 RMS     0.000067854

 GradGradGradGradGradGradGradGradGradGradGradGradGradGradGradGradGradGrad
 Berny optimization.
 Using GEDIIS/GDIIS optimizer.
 FormGI is forming the generalized inverse of G from B-inverse, IUseBI=4.
 GSVD:  received Info=                   1 from GESDD.
 Internal  Forces:  Max     0.000190609 RMS     0.000042601
 Search for a local minimum.
 Step number  25 out of a maximum of  101
 All quantities printed in internal units (Hartrees-Bohrs-Radians)
 Mixed Optimization -- En-DIIS/RFO-DIIS
 Swapping is turned off.
 Update second derivatives using D2CorX and points   19   21   22   23   24
                                                     25
 DE= -4.01D-06 DEPred=-4.49D-06 R= 8.93D-01
 TightC=F SS=  1.41D+00  RLast= 1.47D-01 DXNew= 2.5227D-01 4.4194D-01
 Trust test= 8.93D-01 RLast= 1.47D-01 DXMaxT set to 2.52D-01
 ITU=  1  1  1 -1  0  0 -1  0  0  0  0  0  0  0 -1  1  0  0 -1  0
 ITU=  1  1  1  1  0
     Eigenvalues ---    0.00014   0.01161   0.01579   0.01712   0.02040
     Eigenvalues ---    0.02150   0.02156   0.02157   0.02157   0.02159
     Eigenvalues ---    0.02160   0.02172   0.02181   0.02195   0.03407
     Eigenvalues ---    0.06762   0.07488   0.12235   0.13539   0.15688
     Eigenvalues ---    0.15996   0.16035   0.16170   0.16329   0.17034
     Eigenvalues ---    0.17870   0.18717   0.22000   0.22823   0.23196
     Eigenvalues ---    0.25186   0.26405   0.27618   0.31159   0.34047
     Eigenvalues ---    0.34540   0.34647   0.35154   0.35165   0.35200
     Eigenvalues ---    0.35571   0.37831   0.39151   0.42230   0.42901
     Eigenvalues ---    0.44461   0.45308   0.46777   0.47321   0.50261
     Eigenvalues ---    0.52684   0.53286   0.55600   0.85447
 En-DIIS/RFO-DIIS IScMMF=        0 using points:    25   24   23   22   21
 RFO step:  Lambda=-5.62588624D-07.
 DidBck=F Rises=F RFO-DIIS coefs:    1.36283   -0.15431   -0.08267   -0.00829   -0.11756
 Iteration  1 RMS(Cart)=  0.01701091 RMS(Int)=  0.00035314
 Iteration  2 RMS(Cart)=  0.00037149 RMS(Int)=  0.00000532
 Iteration  3 RMS(Cart)=  0.00000013 RMS(Int)=  0.00000532
 Variable       Old X    -DE/DX   Delta X   Delta X   Delta X     New X
                                 (Linear)    (Quad)   (Total)
    R1        2.63474   0.00003  -0.00006  -0.00001  -0.00007   2.63466
    R2        1.84483   0.00000   0.00000   0.00000   0.00000   1.84482
    R3        2.36354   0.00000   0.00021  -0.00020   0.00001   2.36355
    R4        2.68349   0.00003   0.00004  -0.00008  -0.00004   2.68345
    R5        2.60435   0.00005  -0.00025   0.00008  -0.00017   2.60417
    R6        1.90843   0.00004  -0.00008   0.00012   0.00004   1.90847
    R7        2.65511   0.00001   0.00000   0.00003   0.00003   2.65514
    R8        2.66113   0.00000   0.00000  -0.00003  -0.00003   2.66110
    R9        2.64251   0.00001   0.00001  -0.00003  -0.00003   2.64248
   R10        2.04073  -0.00001  -0.00005   0.00008   0.00003   2.04077
   R11        2.63022  -0.00001  -0.00007   0.00013   0.00005   2.63027
   R12        2.05449   0.00000   0.00002  -0.00002   0.00000   2.05449
   R13        2.64174  -0.00001  -0.00004   0.00013   0.00009   2.64182
   R14        2.05405   0.00000   0.00000   0.00000   0.00001   2.05406
   R15        2.64384   0.00001   0.00011  -0.00014  -0.00004   2.64381
   R16        2.04709   0.00000  -0.00002   0.00002   0.00000   2.04709
   R17        2.86915   0.00001  -0.00007   0.00008   0.00001   2.86916
   R18        2.07034  -0.00010  -0.00066  -0.00018  -0.00084   2.06950
   R19        2.06635   0.00007   0.00074   0.00003   0.00077   2.06713
   R20        2.06757   0.00007  -0.00008   0.00018   0.00010   2.06767
    A1        1.94760   0.00000   0.00015  -0.00012   0.00003   1.94763
    A2        2.24448   0.00004  -0.00017   0.00023   0.00006   2.24454
    A3        2.00616   0.00000  -0.00010   0.00019   0.00009   2.00625
    A4        2.03254  -0.00004   0.00028  -0.00042  -0.00014   2.03240
    A5        2.15311   0.00003   0.00025  -0.00035  -0.00010   2.15301
    A6        2.05011  -0.00003  -0.00022   0.00034   0.00012   2.05022
    A7        2.07997   0.00000  -0.00002   0.00001  -0.00001   2.07996
    A8        2.08885   0.00000   0.00004  -0.00005   0.00000   2.08885
    A9        2.08383   0.00000  -0.00012   0.00012   0.00000   2.08384
   A10        2.11050   0.00000   0.00008  -0.00008   0.00000   2.11050
   A11        2.11077   0.00000  -0.00001   0.00003   0.00002   2.11079
   A12        2.09074   0.00000   0.00002  -0.00002   0.00000   2.09074
   A13        2.08167   0.00000  -0.00001   0.00000  -0.00002   2.08166
   A14        2.10627  -0.00001  -0.00001   0.00003   0.00002   2.10630
   A15        2.07846   0.00000   0.00000   0.00004   0.00004   2.07850
   A16        2.09845   0.00000   0.00001  -0.00007  -0.00006   2.09839
   A17        2.08789   0.00001   0.00005  -0.00004   0.00001   2.08790
   A18        2.11716   0.00000  -0.00007   0.00008   0.00001   2.11717
   A19        2.07814   0.00000   0.00003  -0.00004  -0.00002   2.07812
   A20        2.15007   0.00002   0.00009  -0.00018  -0.00010   2.14997
   A21        2.04050  -0.00002  -0.00004   0.00017   0.00013   2.04063
   A22        2.09262   0.00000  -0.00005   0.00001  -0.00004   2.09258
   A23        2.16049   0.00003   0.00016  -0.00007   0.00006   2.16055
   A24        2.11570   0.00011  -0.00077   0.00075  -0.00005   2.11565
   A25        2.00691  -0.00014   0.00076  -0.00067   0.00005   2.00696
   A26        1.90527  -0.00001  -0.00055  -0.00005  -0.00060   1.90467
   A27        1.89963   0.00007   0.00034   0.00052   0.00086   1.90049
   A28        1.98761  -0.00019   0.00098  -0.00130  -0.00031   1.98730
   A29        1.87098   0.00007  -0.00071   0.00086   0.00015   1.87113
   A30        1.89593   0.00006   0.00102  -0.00008   0.00094   1.89687
   A31        1.90097   0.00001  -0.00118   0.00017  -0.00101   1.89995
    D1       -0.00010   0.00000  -0.00033   0.00022  -0.00010  -0.00020
    D2        3.14158   0.00000  -0.00035   0.00016  -0.00018   3.14140
    D3        0.00201  -0.00001  -0.00239   0.00018  -0.00221  -0.00020
    D4       -3.13975   0.00000  -0.00255   0.00053  -0.00203   3.14141
    D5        3.14073   0.00000  -0.00055  -0.00015  -0.00070   3.14002
    D6       -0.00103   0.00001  -0.00072   0.00020  -0.00052  -0.00156
    D7       -0.00501  -0.00003   0.00341  -0.00100   0.00240  -0.00261
    D8        3.12209   0.00009   0.00918  -0.00004   0.00915   3.13124
    D9        3.13949  -0.00004   0.00155  -0.00067   0.00088   3.14037
   D10       -0.01659   0.00007   0.00732   0.00030   0.00762  -0.00897
   D11        3.14152   0.00001  -0.00042   0.00045   0.00003   3.14155
   D12        0.00006   0.00001  -0.00064   0.00065   0.00001   0.00008
   D13        0.00009   0.00000  -0.00025   0.00010  -0.00015  -0.00006
   D14       -3.14136   0.00000  -0.00047   0.00030  -0.00017  -3.14153
   D15        3.14155  -0.00001   0.00034  -0.00038  -0.00004   3.14151
   D16        0.00014  -0.00001   0.00022  -0.00029  -0.00007   0.00007
   D17       -0.00020   0.00000   0.00018  -0.00005   0.00013  -0.00007
   D18        3.14157   0.00000   0.00007   0.00004   0.00010  -3.14151
   D19        0.00001   0.00000   0.00017  -0.00009   0.00008   0.00009
   D20       -3.14142   0.00000   0.00002  -0.00007  -0.00004  -3.14146
   D21        3.14146   0.00000   0.00039  -0.00029   0.00010   3.14156
   D22        0.00003   0.00000   0.00024  -0.00027  -0.00003   0.00001
   D23        0.00020   0.00000  -0.00001  -0.00001  -0.00003   0.00017
   D24       -3.14141   0.00000  -0.00005   0.00002  -0.00003  -3.14143
   D25       -3.14157   0.00000   0.00010  -0.00010   0.00000  -3.14157
   D26        0.00001   0.00000   0.00006  -0.00007   0.00000   0.00001
   D27       -3.14152   0.00000  -0.00002  -0.00004  -0.00006  -3.14158
   D28       -0.00002   0.00000   0.00000   0.00002   0.00003   0.00001
   D29       -0.00009   0.00000   0.00013  -0.00006   0.00007  -0.00003
   D30        3.14141   0.00000   0.00015   0.00000   0.00015   3.14156
   D31        3.14142   0.00000  -0.00006   0.00009   0.00003   3.14145
   D32       -0.00009   0.00000  -0.00008   0.00003  -0.00005  -0.00014
   D33       -0.00016   0.00000  -0.00002   0.00005   0.00003  -0.00013
   D34        3.14152   0.00000  -0.00004  -0.00001  -0.00005   3.14146
   D35        1.15311   0.00011  -0.03946  -0.00576  -0.04522   1.10789
   D36       -0.88372  -0.00001  -0.03850  -0.00705  -0.04555  -0.92928
   D37       -3.00807   0.00005  -0.03789  -0.00678  -0.04467  -3.05274
   D38       -1.97440   0.00000  -0.04509  -0.00669  -0.05178  -2.02618
   D39        2.27195  -0.00012  -0.04412  -0.00799  -0.05211   2.21984
   D40        0.14760  -0.00006  -0.04352  -0.00771  -0.05123   0.09638
         Item               Value     Threshold  Converged?
 Maximum Force            0.000191     0.000450     YES
 RMS     Force            0.000043     0.000300     YES
 Maximum Displacement     0.073754     0.001800     NO 
 RMS     Displacement     0.017012     0.001200     NO 
 Predicted change in Energy=-2.187006D-06
 GradGradGradGradGradGradGradGradGradGradGradGradGradGradGradGradGradGrad

                          Input orientation:                          
 ---------------------------------------------------------------------
 Center     Atomic      Atomic             Coordinates (Angstroms)
 Number     Number       Type             X           Y           Z
 ---------------------------------------------------------------------
      1          8           0        3.923118    0.384332    0.020151
      2          8           0       -2.616830    1.361351   -0.149198
      3          7           0       -1.587044   -0.709227    0.032069
      4          6           0       -0.211637   -0.356210    0.022509
      5          6           0        0.245296    0.968512   -0.079748
      6          6           0        0.727738   -1.400620    0.121448
      7          6           0        1.619178    1.228903   -0.081675
      8          6           0        2.094337   -1.136553    0.118960
      9          6           0        2.543303    0.184566    0.017008
     10          6           0       -2.687229    0.116463   -0.050997
     11          6           0       -4.027549   -0.596365   -0.025787
     12          1           0       -0.471974    1.772249   -0.155752
     13          1           0        0.385281   -2.429396    0.200961
     14          1           0       -1.772286   -1.699008    0.109232
     15          1           0        1.962008    2.257321   -0.161104
     16          1           0        2.822103   -1.935376    0.194618
     17          1           0       -4.539122   -0.432609   -0.980141
     18          1           0       -4.650484   -0.151753    0.755774
     19          1           0       -3.952805   -1.673478    0.151516
     20          1           0        4.149199    1.331098   -0.054444
 ---------------------------------------------------------------------
                    Distance matrix (angstroms):
                    1          2          3          4          5
     1  O    0.000000
     2  O    6.614693   0.000000
     3  N    5.617641   2.319614   0.000000
     4  C    4.200548   2.960482   1.420020   0.000000
     5  C    3.725268   2.889794   2.486921   1.405038   0.000000
     6  C    3.661525   4.346018   2.417484   1.408193   2.426111
     7  C    2.455973   4.238617   3.748219   2.423906   1.398342
     8  C    2.380608   5.339151   3.707118   2.436341   2.808868
     9  C    1.394205   5.295226   4.225974   2.807518   2.429973
    10  C    6.616155   1.250737   1.378068   2.521385   3.053935
    11  C    8.011053   2.416197   2.443798   3.823766   4.550709
    12  H    4.612384   2.183870   2.726972   2.151717   1.079928
    13  H    4.523941   4.848200   2.622513   2.164777   3.412356
    14  H    6.065135   3.185254   1.009919   2.060644   3.349928
    15  H    2.717884   4.665690   4.629631   3.404260   2.148196
    16  H    2.573659   6.369350   4.579349   3.424466   3.892015
    17  H    8.560226   2.757528   3.133026   4.442777   5.066014
    18  H    8.621785   2.691506   3.196747   4.503648   5.091341
    19  H    8.141376   3.329481   2.557513   3.968398   4.965646
    20  H    0.976239   6.766761   6.088916   4.676518   3.920787
                    6          7          8          9         10
     6  C    0.000000
     7  C    2.783938   0.000000
     8  C    1.391880   2.421036   0.000000
     9  C    2.412466   1.397993   1.399042   0.000000
    10  C    3.740759   4.447877   4.945939   5.231417   0.000000
    11  C    4.825065   5.934665   6.147377   6.617233   1.518294
    12  H    3.403416   2.161858   3.888772   3.412107   2.767663
    13  H    1.087189   3.871115   2.144537   3.394656   3.998150
    14  H    2.517798   4.484544   3.907330   4.709635   2.039297
    15  H    3.870890   1.086962   3.407981   2.160079   5.119648
    16  H    2.162795   3.396472   1.083275   2.145560   5.884141
    17  H    5.467207   6.441469   6.760646   7.178854   2.143431
    18  H    5.557635   6.474272   6.846019   7.239437   2.139437
    19  H    4.688586   6.286906   6.071020   6.757946   2.201496
    20  H    4.381736   2.532231   3.215872   1.974473   6.943494
                   11         12         13         14         15
    11  C    0.000000
    12  H    4.274264   0.000000
    13  H    4.783773   4.303016   0.000000
    14  H    2.514013   3.716269   2.279688   0.000000
    15  H    6.636009   2.481852   4.958072   5.447070   0.000000
    16  H    6.982783   4.971940   2.486402   4.601257   4.294766
    17  H    1.095132   4.699224   5.443519   3.232009   7.083165
    18  H    1.093877   4.689628   5.554675   3.331072   7.097136
    19  H    1.094164   4.907508   4.403731   2.181079   7.108722
    20  H    8.400901   4.643287   5.326690   6.653745   2.377619
                   16         17         18         19         20
    16  H    0.000000
    17  H    7.604341   0.000000
    18  H    7.702971   1.762011   0.000000
    19  H    6.780105   1.778812   1.779756   0.000000
    20  H    3.534553   8.913725   8.960453   8.643632   0.000000
 Stoichiometry    C8H9NO2
 Framework group  C1[X(C8H9NO2)]
 Deg. of freedom    54
 Full point group                 C1      NOp   1
 Largest Abelian subgroup         C1      NOp   1
 Largest concise Abelian subgroup C1      NOp   1
                         Standard orientation:                         
 ---------------------------------------------------------------------
 Center     Atomic      Atomic             Coordinates (Angstroms)
 Number     Number       Type             X           Y           Z
 ---------------------------------------------------------------------
      1          8           0        3.995513   -0.243359    0.002851
      2          8           0       -2.507468   -1.453871   -0.005304
      3          7           0       -1.549248    0.658573   -0.003983
      4          6           0       -0.162460    0.353165   -0.002150
      5          6           0        0.339648   -0.959090    0.000120
      6          6           0        0.740616    1.433656   -0.002649
      7          6           0        1.721737   -1.171664    0.001768
      8          6           0        2.115549    1.217126   -0.000846
      9          6           0        2.609572   -0.091788    0.001290
     10          6           0       -2.620545   -0.208256   -0.004136
     11          6           0       -3.984775    0.458038    0.007893
     12          1           0       -0.349689   -1.790389    0.000452
     13          1           0        0.363068    2.453183   -0.004325
     14          1           0       -1.768343    1.644440   -0.004088
     15          1           0        2.099646   -2.190814    0.003396
     16          1           0        2.815544    2.043862   -0.001071
     17          1           0       -4.501890    0.200237    0.938186
     18          1           0       -4.582024    0.057063   -0.816169
     19          1           0       -3.945923    1.547887   -0.081083
     20          1           0        4.253933   -1.184772    0.004469
 ---------------------------------------------------------------------
 Rotational constants (GHZ):      3.5670709      0.5407061      0.4709042
 Standard basis: 6-31G (6D, 7F)
 There are   117 symmetry adapted cartesian basis functions of A   symmetry.
 There are   117 symmetry adapted basis functions of A   symmetry.
   117 basis functions,   278 primitive gaussians,   117 cartesian basis functions
    40 alpha electrons       40 beta electrons
       nuclear repulsion energy       567.9853040855 Hartrees.
 NAtoms=   20 NActive=   20 NUniq=   20 SFac= 1.00D+00 NAtFMM=   60 NAOKFM=F Big=F
 Integral buffers will be    262144 words long.
 Raffenetti 2 integral format.
 Two-electron integral symmetry is turned on.
 One-electron integrals computed using PRISM.
 NBasis=   117 RedAO= T EigKep=  5.94D-04  NBF=   117
 NBsUse=   117 1.00D-06 EigRej= -1.00D+00 NBFU=   117
 Initial guess from the checkpoint file:  "E:\Research\Paracetamol Project\paracetamol_opt_freq.chk"
 B after Tr=     0.000000    0.000000    0.000000
         Rot=    1.000000   -0.000784    0.000081    0.000002 Ang=  -0.09 deg.
 ExpMin= 1.61D-01 ExpMax= 5.48D+03 ExpMxC= 8.25D+02 IAcc=1 IRadAn=         1 AccDes= 0.00D+00
 Harris functional with IExCor=  402 and IRadAn=       1 diagonalized for initial guess.
 HarFok:  IExCor=  402 AccDes= 0.00D+00 IRadAn=         1 IDoV= 1 UseB2=F ITyADJ=14
 ICtDFT=  3500011 ScaDFX=  1.000000  1.000000  1.000000  1.000000
 FoFCou: FMM=F IPFlag=           0 FMFlag=      100000 FMFlg1=           0
         NFxFlg=           0 DoJE=T BraDBF=F KetDBF=T FulRan=T
         wScrn=  0.000000 ICntrl=     500 IOpCl=  0 I1Cent=   200000004 NGrid=           0
         NMat0=    1 NMatS0=      1 NMatT0=    0 NMatD0=    1 NMtDS0=    0 NMtDT0=    0
 Petite list used in FoFCou.
 Keep R1 ints in memory in canonical form, NReq=24825568.
 Requested convergence on RMS density matrix=1.00D-08 within 128 cycles.
 Requested convergence on MAX density matrix=1.00D-06.
 Requested convergence on             energy=1.00D-06.
 No special actions if energy rises.
 Integral accuracy reduced to 1.0D-05 until final iterations.
 Initial convergence to 1.0D-05 achieved.  Increase integral accuracy.
 SCF Done:  E(RB3LYP) =  -515.339638151     A.U. after   10 cycles
            NFock= 10  Conv=0.60D-08     -V/T= 2.0056
 Calling FoFJK, ICntrl=      2127 FMM=F ISym2X=0 I1Cent= 0 IOpClX= 0 NMat=1 NMatS=1 NMatT=0.
 ***** Axes restored to original set *****
 -------------------------------------------------------------------
 Center     Atomic                   Forces (Hartrees/Bohr)
 Number     Number              X              Y              Z
 -------------------------------------------------------------------
      1        8           0.000050948   -0.000020569   -0.000000877
      2        8           0.000017838    0.000015331    0.000002270
      3        7           0.000048066   -0.000124879    0.000021661
      4        6           0.000024090    0.000040522   -0.000004700
      5        6          -0.000001722    0.000021470   -0.000007313
      6        6           0.000012152   -0.000018601   -0.000001663
      7        6           0.000029757   -0.000020613    0.000001262
      8        6          -0.000015219   -0.000017751    0.000001548
      9        6          -0.000078059    0.000084627   -0.000009954
     10        6          -0.000070738    0.000085491   -0.000036537
     11        6          -0.000117369    0.000042196   -0.000011635
     12        1           0.000009183   -0.000019128    0.000011647
     13        1           0.000000483    0.000000786    0.000003947
     14        1           0.000008430    0.000000416    0.000003083
     15        1          -0.000006415    0.000004236   -0.000001624
     16        1          -0.000003089    0.000002826    0.000002596
     17        1           0.000037030   -0.000025047   -0.000000663
     18        1           0.000017444   -0.000031240    0.000024981
     19        1           0.000042837   -0.000026633   -0.000000226
     20        1          -0.000005647    0.000006560    0.000002195
 -------------------------------------------------------------------
 Cartesian Forces:  Max     0.000124879 RMS     0.000035838

 GradGradGradGradGradGradGradGradGradGradGradGradGradGradGradGradGradGrad
 Berny optimization.
 Using GEDIIS/GDIIS optimizer.
 FormGI is forming the generalized inverse of G from B-inverse, IUseBI=4.
 GSVD:  received Info=                   1 from GESDD.
 Internal  Forces:  Max     0.000112502 RMS     0.000022644
 Search for a local minimum.
 Step number  26 out of a maximum of  101
 All quantities printed in internal units (Hartrees-Bohrs-Radians)
 Mixed Optimization -- En-DIIS/RFO-DIIS
 Swapping is turned off.
 Update second derivatives using D2CorX and points   21   23   24   25   26
 DE= -2.44D-06 DEPred=-2.19D-06 R= 1.12D+00
 TightC=F SS=  1.41D+00  RLast= 1.20D-01 DXNew= 4.2426D-01 3.5874D-01
 Trust test= 1.12D+00 RLast= 1.20D-01 DXMaxT set to 3.59D-01
 ITU=  1  1  1  1 -1  0  0 -1  0  0  0  0  0  0  0 -1  1  0  0 -1
 ITU=  0  1  1  1  1  0
     Eigenvalues ---    0.00008   0.01174   0.01695   0.01717   0.02040
     Eigenvalues ---    0.02151   0.02156   0.02157   0.02157   0.02159
     Eigenvalues ---    0.02161   0.02171   0.02180   0.02194   0.03938
     Eigenvalues ---    0.06764   0.07309   0.12292   0.13532   0.15596
     Eigenvalues ---    0.15956   0.16021   0.16101   0.16333   0.16900
     Eigenvalues ---    0.17844   0.18638   0.21993   0.22825   0.23172
     Eigenvalues ---    0.25180   0.26393   0.27309   0.31179   0.34134
     Eigenvalues ---    0.34524   0.34726   0.35156   0.35175   0.35201
     Eigenvalues ---    0.35595   0.37790   0.39257   0.42247   0.42918
     Eigenvalues ---    0.44491   0.45313   0.46772   0.47344   0.50113
     Eigenvalues ---    0.52704   0.53297   0.55597   0.85376
 Eigenvalue     1 is   7.53D-05 Eigenvector:
                          D38       D40       D39       D35       D37
   1                    0.42730   0.42094   0.41933   0.39636   0.39000
                          D36       D8        D10       D7        D3
   1                    0.38839  -0.04539  -0.03791  -0.01357   0.01073
 En-DIIS/RFO-DIIS IScMMF=        0 using points:    26   25   24   23   22
 RFO step:  Lambda=-9.89272374D-08.
 DidBck=F Rises=F RFO-DIIS coefs:    1.22124    0.22115   -0.53686    0.10389   -0.00942
 Iteration  1 RMS(Cart)=  0.01081569 RMS(Int)=  0.00014643
 Iteration  2 RMS(Cart)=  0.00015263 RMS(Int)=  0.00000088
 Iteration  3 RMS(Cart)=  0.00000002 RMS(Int)=  0.00000088
 Variable       Old X    -DE/DX   Delta X   Delta X   Delta X     New X
                                 (Linear)    (Quad)   (Total)
    R1        2.63466   0.00004  -0.00001   0.00005   0.00004   2.63471
    R2        1.84482   0.00000  -0.00001   0.00001   0.00000   1.84482
    R3        2.36355   0.00002   0.00012  -0.00008   0.00004   2.36359
    R4        2.68345   0.00003   0.00008  -0.00003   0.00005   2.68350
    R5        2.60417   0.00011  -0.00008   0.00020   0.00013   2.60430
    R6        1.90847   0.00000  -0.00005   0.00001  -0.00004   1.90844
    R7        2.65514   0.00001  -0.00003   0.00001  -0.00003   2.65511
    R8        2.66110  -0.00001   0.00002  -0.00001   0.00001   2.66111
    R9        2.64248   0.00001   0.00005  -0.00002   0.00003   2.64252
   R10        2.04077  -0.00002  -0.00004   0.00000  -0.00004   2.04073
   R11        2.63027  -0.00003  -0.00008   0.00002  -0.00006   2.63022
   R12        2.05449   0.00000   0.00000  -0.00001   0.00000   2.05448
   R13        2.64182  -0.00003   0.00000  -0.00007  -0.00007   2.64175
   R14        2.05406   0.00000   0.00000   0.00000   0.00000   2.05406
   R15        2.64381   0.00002   0.00008  -0.00002   0.00006   2.64386
   R16        2.04709   0.00000   0.00000   0.00000   0.00000   2.04709
   R17        2.86916   0.00003  -0.00007   0.00016   0.00010   2.86926
   R18        2.06950  -0.00002  -0.00039  -0.00004  -0.00043   2.06907
   R19        2.06713   0.00000   0.00048  -0.00010   0.00037   2.06750
   R20        2.06767   0.00002  -0.00002   0.00004   0.00002   2.06769
    A1        1.94763  -0.00001   0.00005  -0.00007  -0.00002   1.94761
    A2        2.24454   0.00001  -0.00005  -0.00004  -0.00009   2.24445
    A3        2.00625  -0.00001   0.00003  -0.00003   0.00000   2.00624
    A4        2.03240   0.00000   0.00002   0.00007   0.00009   2.03249
    A5        2.15301   0.00004   0.00018  -0.00009   0.00009   2.15310
    A6        2.05022  -0.00005  -0.00021   0.00008  -0.00013   2.05009
    A7        2.07996   0.00001   0.00003   0.00001   0.00004   2.07999
    A8        2.08885   0.00000   0.00000   0.00001   0.00001   2.08886
    A9        2.08384   0.00000   0.00003  -0.00003   0.00000   2.08384
   A10        2.11050   0.00000  -0.00003   0.00002  -0.00001   2.11048
   A11        2.11079  -0.00001  -0.00002  -0.00003  -0.00005   2.11073
   A12        2.09074   0.00000   0.00000   0.00000   0.00000   2.09074
   A13        2.08166   0.00001   0.00002   0.00004   0.00005   2.08171
   A14        2.10630  -0.00001  -0.00002  -0.00003  -0.00004   2.10625
   A15        2.07850   0.00000  -0.00005   0.00003  -0.00002   2.07847
   A16        2.09839   0.00001   0.00007   0.00000   0.00007   2.09846
   A17        2.08790   0.00001   0.00003  -0.00001   0.00002   2.08792
   A18        2.11717  -0.00001  -0.00003   0.00002   0.00000   2.11717
   A19        2.07812   0.00000   0.00000  -0.00002  -0.00002   2.07810
   A20        2.14997   0.00003   0.00019  -0.00005   0.00014   2.15011
   A21        2.04063  -0.00004  -0.00017   0.00000  -0.00017   2.04046
   A22        2.09258   0.00001  -0.00002   0.00005   0.00003   2.09261
   A23        2.16055   0.00001   0.00015  -0.00017  -0.00002   2.16053
   A24        2.11565   0.00006  -0.00033   0.00032  -0.00002   2.11563
   A25        2.00696  -0.00007   0.00021  -0.00015   0.00005   2.00702
   A26        1.90467  -0.00001  -0.00066  -0.00008  -0.00073   1.90393
   A27        1.90049   0.00002   0.00054   0.00011   0.00065   1.90114
   A28        1.98730  -0.00007   0.00023  -0.00022   0.00001   1.98731
   A29        1.87113   0.00004  -0.00024   0.00034   0.00010   1.87123
   A30        1.89687   0.00002   0.00053  -0.00006   0.00047   1.89734
   A31        1.89995   0.00001  -0.00044  -0.00006  -0.00050   1.89946
    D1       -0.00020   0.00000  -0.00008   0.00009   0.00001  -0.00019
    D2        3.14140   0.00000  -0.00009   0.00015   0.00006   3.14146
    D3       -0.00020   0.00000  -0.00115   0.00037  -0.00078  -0.00097
    D4        3.14141   0.00000  -0.00101   0.00033  -0.00067   3.14074
    D5        3.14002   0.00000  -0.00049   0.00016  -0.00033   3.13969
    D6       -0.00156   0.00000  -0.00035   0.00013  -0.00023  -0.00178
    D7       -0.00261  -0.00001   0.00100  -0.00031   0.00070  -0.00191
    D8        3.13124   0.00000   0.00382  -0.00042   0.00340   3.13464
    D9        3.14037   0.00000   0.00034  -0.00009   0.00024   3.14061
   D10       -0.00897   0.00000   0.00316  -0.00021   0.00295  -0.00602
   D11        3.14155   0.00000   0.00008   0.00012   0.00020  -3.14144
   D12        0.00008   0.00001   0.00008   0.00023   0.00031   0.00039
   D13       -0.00006   0.00000  -0.00006   0.00016   0.00009   0.00003
   D14       -3.14153   0.00001  -0.00005   0.00026   0.00021  -3.14133
   D15        3.14151   0.00000  -0.00006  -0.00009  -0.00015   3.14136
   D16        0.00007   0.00000  -0.00007  -0.00014  -0.00021  -0.00015
   D17       -0.00007   0.00000   0.00007  -0.00012  -0.00005  -0.00012
   D18       -3.14151   0.00000   0.00006  -0.00017  -0.00011   3.14156
   D19        0.00009   0.00000   0.00000  -0.00005  -0.00004   0.00005
   D20       -3.14146   0.00000  -0.00001  -0.00005  -0.00006  -3.14152
   D21        3.14156   0.00000   0.00000  -0.00015  -0.00016   3.14140
   D22        0.00001   0.00000  -0.00001  -0.00016  -0.00018  -0.00017
   D23        0.00017   0.00000  -0.00002  -0.00002  -0.00005   0.00012
   D24       -3.14143   0.00000  -0.00003  -0.00003  -0.00006  -3.14149
   D25       -3.14157   0.00000  -0.00001   0.00003   0.00002  -3.14155
   D26        0.00001   0.00000  -0.00002   0.00002   0.00001   0.00002
   D27       -3.14158   0.00000   0.00003  -0.00003   0.00000  -3.14158
   D28        0.00001   0.00000   0.00005  -0.00010  -0.00005  -0.00004
   D29       -0.00003   0.00000   0.00004  -0.00003   0.00001  -0.00001
   D30        3.14156   0.00000   0.00006  -0.00009  -0.00003   3.14153
   D31        3.14145   0.00000  -0.00002   0.00007   0.00005   3.14150
   D32       -0.00014   0.00000  -0.00004   0.00013   0.00010  -0.00004
   D33       -0.00013   0.00000  -0.00001   0.00008   0.00006  -0.00007
   D34        3.14146   0.00000  -0.00003   0.00014   0.00011   3.14157
   D35        1.10789   0.00003  -0.02706  -0.00325  -0.03032   1.07757
   D36       -0.92928  -0.00002  -0.02672  -0.00367  -0.03039  -0.95967
   D37       -3.05274  -0.00001  -0.02670  -0.00353  -0.03024  -3.08298
   D38       -2.02618   0.00002  -0.02981  -0.00314  -0.03295  -2.05912
   D39        2.21984  -0.00003  -0.02946  -0.00356  -0.03302   2.18682
   D40        0.09638  -0.00001  -0.02945  -0.00342  -0.03287   0.06351
         Item               Value     Threshold  Converged?
 Maximum Force            0.000113     0.000450     YES
 RMS     Force            0.000023     0.000300     YES
 Maximum Displacement     0.052000     0.001800     NO 
 RMS     Displacement     0.010816     0.001200     NO 
 Predicted change in Energy=-6.199765D-07
 GradGradGradGradGradGradGradGradGradGradGradGradGradGradGradGradGradGrad

                          Input orientation:                          
 ---------------------------------------------------------------------
 Center     Atomic      Atomic             Coordinates (Angstroms)
 Number     Number       Type             X           Y           Z
 ---------------------------------------------------------------------
      1          8           0        3.923123    0.384372    0.022589
      2          8           0       -2.616719    1.360726   -0.156644
      3          7           0       -1.586976   -0.709419    0.030530
      4          6           0       -0.211592   -0.356189    0.021903
      5          6           0        0.245379    0.968277   -0.083261
      6          6           0        0.727690   -1.400310    0.124793
      7          6           0        1.619262    1.228764   -0.084237
      8          6           0        2.094241   -1.136145    0.123291
      9          6           0        2.543268    0.184747    0.018313
     10          6           0       -2.687179    0.116065   -0.055418
     11          6           0       -4.027653   -0.596411   -0.025758
     12          1           0       -0.471830    1.771764   -0.162101
     13          1           0        0.385160   -2.428873    0.206685
     14          1           0       -1.772147   -1.699030    0.109783
     15          1           0        1.962090    2.256997   -0.165998
     16          1           0        2.821972   -1.934700    0.202031
     17          1           0       -4.553835   -0.408659   -0.967406
     18          1           0       -4.637934   -0.171107    0.776533
     19          1           0       -3.951102   -1.677583    0.123999
     20          1           0        4.149381    1.330917   -0.054229
 ---------------------------------------------------------------------
                    Distance matrix (angstroms):
                    1          2          3          4          5
     1  O    0.000000
     2  O    6.614751   0.000000
     3  N    5.617619   2.319677   0.000000
     4  C    4.200512   2.960458   1.420045   0.000000
     5  C    3.725312   2.889811   2.486994   1.405024   0.000000
     6  C    3.661465   4.345986   2.417416   1.408200   2.426132
     7  C    2.456051   4.238654   3.748292   2.423916   1.398359
     8  C    2.380530   5.339089   3.707029   2.436283   2.808834
     9  C    1.394227   5.295187   4.225944   2.807468   2.429924
    10  C    6.616205   1.250757   1.378135   2.521415   3.054004
    11  C    8.011187   2.416248   2.443940   3.823912   4.550864
    12  H    4.612438   2.183925   2.727073   2.151689   1.079906
    13  H    4.523873   4.848127   2.622379   2.164780   3.412365
    14  H    6.065004   3.185340   1.009900   2.060650   3.349956
    15  H    2.718077   4.665714   4.629700   3.404254   2.148195
    16  H    2.573486   6.369288   4.579252   3.424420   3.891978
    17  H    8.571336   2.745993   3.144612   4.453825   5.070515
    18  H    8.612124   2.702340   3.186635   4.494021   5.087651
    19  H    8.140354   3.330263   2.556397   3.967422   4.965278
    20  H    0.976238   6.766940   6.089002   4.676559   3.920915
                    6          7          8          9         10
     6  C    0.000000
     7  C    2.783994   0.000000
     8  C    1.391850   2.421047   0.000000
     9  C    2.412481   1.397954   1.399072   0.000000
    10  C    3.740749   4.447962   4.945902   5.231418   0.000000
    11  C    4.825165   5.934841   6.147448   6.617338   1.518346
    12  H    3.403412   2.161846   3.888715   3.412036   2.767759
    13  H    1.087186   3.871169   2.144541   3.394690   3.998083
    14  H    2.517667   4.484560   3.907171   4.709543   2.039398
    15  H    3.870943   1.086959   3.408015   2.160083   5.119719
    16  H    2.162765   3.396463   1.083273   2.145573   5.884102
    17  H    5.483683   6.447345   6.776118   7.189759   2.142770
    18  H    5.543070   6.469394   6.832291   7.229882   2.140106
    19  H    4.687001   6.286427   6.069541   6.756943   2.201559
    20  H    4.381737   2.532358   3.215822   1.974479   6.943660
                   11         12         13         14         15
    11  C    0.000000
    12  H    4.274426   0.000000
    13  H    4.783813   4.302997   0.000000
    14  H    2.514249   3.716336   2.279481   0.000000
    15  H    6.636161   2.481821   4.958123   5.447085   0.000000
    16  H    6.982856   4.971881   2.486419   4.601085   4.294784
    17  H    1.094906   4.697395   5.463829   3.250105   7.085567
    18  H    1.094074   4.691716   5.536578   3.315394   7.095377
    19  H    1.094175   4.907664   4.401640   2.179106   7.108506
    20  H    8.401148   4.643444   5.326674   6.653719   2.377889
                   16         17         18         19         20
    16  H    0.000000
    17  H    7.622264   0.000000
    18  H    7.687035   1.762053   0.000000
    19  H    6.778401   1.778938   1.779609   0.000000
    20  H    3.534394   8.922218   8.953387   8.642954   0.000000
 Stoichiometry    C8H9NO2
 Framework group  C1[X(C8H9NO2)]
 Deg. of freedom    54
 Full point group                 C1      NOp   1
 Largest Abelian subgroup         C1      NOp   1
 Largest concise Abelian subgroup C1      NOp   1
                         Standard orientation:                         
 ---------------------------------------------------------------------
 Center     Atomic      Atomic             Coordinates (Angstroms)
 Number     Number       Type             X           Y           Z
 ---------------------------------------------------------------------
      1          8           0        3.995546   -0.243200    0.001897
      2          8           0       -2.507469   -1.453852   -0.004451
      3          7           0       -1.549209    0.658643   -0.002354
      4          6           0       -0.162425    0.353098   -0.001346
      5          6           0        0.339678   -0.959145    0.000466
      6          6           0        0.740616    1.433627   -0.002085
      7          6           0        1.721782   -1.171738    0.001545
      8          6           0        2.115517    1.217076   -0.000905
      9          6           0        2.609557   -0.091863    0.000894
     10          6           0       -2.620565   -0.208220   -0.002853
     11          6           0       -3.984890    0.458053    0.005632
     12          1           0       -0.349643   -1.790430    0.000787
     13          1           0        0.363031    2.453137   -0.003519
     14          1           0       -1.768203    1.644514   -0.001904
     15          1           0        2.099654   -2.190900    0.002879
     16          1           0        2.815524    2.043800   -0.001371
     17          1           0       -4.516255    0.174270    0.919929
     18          1           0       -4.569315    0.080821   -0.838844
     19          1           0       -3.944670    1.549947   -0.052401
     20          1           0        4.254107   -1.184574    0.003257
 ---------------------------------------------------------------------
 Rotational constants (GHZ):      3.5671153      0.5406961      0.4708964
 Standard basis: 6-31G (6D, 7F)
 There are   117 symmetry adapted cartesian basis functions of A   symmetry.
 There are   117 symmetry adapted basis functions of A   symmetry.
   117 basis functions,   278 primitive gaussians,   117 cartesian basis functions
    40 alpha electrons       40 beta electrons
       nuclear repulsion energy       567.9813882969 Hartrees.
 NAtoms=   20 NActive=   20 NUniq=   20 SFac= 1.00D+00 NAtFMM=   60 NAOKFM=F Big=F
 Integral buffers will be    262144 words long.
 Raffenetti 2 integral format.
 Two-electron integral symmetry is turned on.
 One-electron integrals computed using PRISM.
 NBasis=   117 RedAO= T EigKep=  5.94D-04  NBF=   117
 NBsUse=   117 1.00D-06 EigRej= -1.00D+00 NBFU=   117
 Initial guess from the checkpoint file:  "E:\Research\Paracetamol Project\paracetamol_opt_freq.chk"
 B after Tr=     0.000000    0.000000    0.000000
         Rot=    1.000000   -0.000523    0.000047   -0.000001 Ang=  -0.06 deg.
 ExpMin= 1.61D-01 ExpMax= 5.48D+03 ExpMxC= 8.25D+02 IAcc=1 IRadAn=         1 AccDes= 0.00D+00
 Harris functional with IExCor=  402 and IRadAn=       1 diagonalized for initial guess.
 HarFok:  IExCor=  402 AccDes= 0.00D+00 IRadAn=         1 IDoV= 1 UseB2=F ITyADJ=14
 ICtDFT=  3500011 ScaDFX=  1.000000  1.000000  1.000000  1.000000
 FoFCou: FMM=F IPFlag=           0 FMFlag=      100000 FMFlg1=           0
         NFxFlg=           0 DoJE=T BraDBF=F KetDBF=T FulRan=T
         wScrn=  0.000000 ICntrl=     500 IOpCl=  0 I1Cent=   200000004 NGrid=           0
         NMat0=    1 NMatS0=      1 NMatT0=    0 NMatD0=    1 NMtDS0=    0 NMtDT0=    0
 Petite list used in FoFCou.
 Keep R1 ints in memory in canonical form, NReq=24825568.
 Requested convergence on RMS density matrix=1.00D-08 within 128 cycles.
 Requested convergence on MAX density matrix=1.00D-06.
 Requested convergence on             energy=1.00D-06.
 No special actions if energy rises.
 Integral accuracy reduced to 1.0D-05 until final iterations.
 Initial convergence to 1.0D-05 achieved.  Increase integral accuracy.
 SCF Done:  E(RB3LYP) =  -515.339638929     A.U. after   10 cycles
            NFock= 10  Conv=0.87D-08     -V/T= 2.0056
 Calling FoFJK, ICntrl=      2127 FMM=F ISym2X=0 I1Cent= 0 IOpClX= 0 NMat=1 NMatS=1 NMatT=0.
 ***** Axes restored to original set *****
 -------------------------------------------------------------------
 Center     Atomic                   Forces (Hartrees/Bohr)
 Number     Number              X              Y              Z
 -------------------------------------------------------------------
      1        8           0.000033128   -0.000000582   -0.000002589
      2        8           0.000008451   -0.000019157   -0.000003594
      3        7           0.000018220   -0.000047169    0.000007930
      4        6          -0.000000879    0.000013138   -0.000004186
      5        6           0.000001813    0.000013792    0.000002559
      6        6           0.000011236   -0.000005223   -0.000004499
      7        6           0.000015171   -0.000008609    0.000000200
      8        6          -0.000004736   -0.000009411    0.000000721
      9        6          -0.000046765    0.000029353   -0.000002328
     10        6          -0.000035184    0.000061185   -0.000011034
     11        6          -0.000045034    0.000007392   -0.000005432
     12        1          -0.000002024   -0.000008238    0.000001871
     13        1           0.000002724   -0.000000543    0.000001478
     14        1           0.000001885   -0.000004341    0.000003604
     15        1          -0.000002848    0.000003566    0.000000147
     16        1          -0.000000208    0.000003971    0.000001128
     17        1           0.000016767   -0.000009399   -0.000000961
     18        1           0.000005391   -0.000018489    0.000013040
     19        1           0.000024846   -0.000010306    0.000000530
     20        1          -0.000001955    0.000009072    0.000001416
 -------------------------------------------------------------------
 Cartesian Forces:  Max     0.000061185 RMS     0.000016984

 GradGradGradGradGradGradGradGradGradGradGradGradGradGradGradGradGradGrad
 Berny optimization.
 Using GEDIIS/GDIIS optimizer.
 FormGI is forming the generalized inverse of G from B-inverse, IUseBI=4.
 Internal  Forces:  Max     0.000044236 RMS     0.000011027
 Search for a local minimum.
 Step number  27 out of a maximum of  101
 All quantities printed in internal units (Hartrees-Bohrs-Radians)
 Mixed Optimization -- En-DIIS/RFO-DIIS
 Swapping is turned off.
 Update second derivatives using D2CorX and points   21   23   24   25   26
                                                     27
 DE= -7.78D-07 DEPred=-6.20D-07 R= 1.26D+00
 Trust test= 1.26D+00 RLast= 7.77D-02 DXMaxT set to 3.59D-01
 ITU=  0  1  1  1  1 -1  0  0 -1  0  0  0  0  0  0  0 -1  1  0  0
 ITU= -1  0  1  1  1  1  0
     Eigenvalues ---    0.00004   0.01148   0.01608   0.01712   0.02040
     Eigenvalues ---    0.02151   0.02156   0.02157   0.02157   0.02159
     Eigenvalues ---    0.02160   0.02171   0.02181   0.02193   0.03734
     Eigenvalues ---    0.06746   0.06904   0.12431   0.13612   0.15648
     Eigenvalues ---    0.15742   0.16012   0.16058   0.16334   0.16557
     Eigenvalues ---    0.17845   0.19143   0.22011   0.22796   0.23091
     Eigenvalues ---    0.25186   0.26115   0.26555   0.31300   0.34110
     Eigenvalues ---    0.34503   0.34673   0.35156   0.35176   0.35200
     Eigenvalues ---    0.35621   0.37809   0.39341   0.42286   0.42986
     Eigenvalues ---    0.44531   0.45257   0.46795   0.47388   0.50335
     Eigenvalues ---    0.52619   0.53490   0.55398   0.85899
 Eigenvalue     1 is   4.29D-05 Eigenvector:
                          D38       D40       D39       D35       D37
   1                   -0.42545  -0.42158  -0.42123  -0.39417  -0.39029
                          D36       D8        D10       D7        A26
   1                   -0.38994   0.04480   0.03778   0.01262  -0.00995
 En-DIIS/RFO-DIIS IScMMF=        0 using points:    27   26   25   24   23
 RFO step:  Lambda=-2.17257260D-08.
 DidBck=F Rises=F RFO-DIIS coefs:    1.93618   -0.91629    0.10983   -0.08501   -0.04470
 Iteration  1 RMS(Cart)=  0.01516480 RMS(Int)=  0.00028751
 Iteration  2 RMS(Cart)=  0.00029995 RMS(Int)=  0.00000129
 Iteration  3 RMS(Cart)=  0.00000009 RMS(Int)=  0.00000129
 Variable       Old X    -DE/DX   Delta X   Delta X   Delta X     New X
                                 (Linear)    (Quad)   (Total)
    R1        2.63471   0.00003   0.00003   0.00004   0.00007   2.63477
    R2        1.84482   0.00000   0.00000   0.00001   0.00001   1.84483
    R3        2.36359  -0.00002   0.00008  -0.00009  -0.00001   2.36357
    R4        2.68350   0.00001   0.00006  -0.00004   0.00002   2.68351
    R5        2.60430   0.00004   0.00002   0.00000   0.00002   2.60432
    R6        1.90844   0.00000  -0.00005   0.00003  -0.00002   1.90841
    R7        2.65511   0.00001  -0.00004   0.00005   0.00000   2.65512
    R8        2.66111   0.00000   0.00002   0.00000   0.00002   2.66113
    R9        2.64252   0.00001   0.00004  -0.00002   0.00002   2.64254
   R10        2.04073  -0.00001  -0.00003   0.00003  -0.00001   2.04072
   R11        2.63022  -0.00001  -0.00006   0.00004  -0.00002   2.63020
   R12        2.05448   0.00000  -0.00001   0.00001   0.00000   2.05448
   R13        2.64175  -0.00001  -0.00006   0.00004  -0.00003   2.64172
   R14        2.05406   0.00000  -0.00001   0.00001   0.00000   2.05405
   R15        2.64386   0.00001   0.00005  -0.00004   0.00002   2.64388
   R16        2.04709   0.00000   0.00000   0.00000   0.00000   2.04709
   R17        2.86926   0.00001   0.00007  -0.00004   0.00003   2.86929
   R18        2.06907  -0.00001  -0.00056   0.00001  -0.00055   2.06852
   R19        2.06750   0.00000   0.00052   0.00002   0.00054   2.06804
   R20        2.06769   0.00001  -0.00001  -0.00003  -0.00004   2.06765
    A1        1.94761   0.00000  -0.00001   0.00000  -0.00001   1.94760
    A2        2.24445   0.00001  -0.00008   0.00004  -0.00004   2.24441
    A3        2.00624   0.00000  -0.00002   0.00004   0.00001   2.00625
    A4        2.03249   0.00000   0.00011  -0.00007   0.00003   2.03252
    A5        2.15310   0.00002   0.00008  -0.00005   0.00002   2.15312
    A6        2.05009  -0.00002  -0.00012   0.00008  -0.00004   2.05005
    A7        2.07999   0.00000   0.00004  -0.00003   0.00001   2.08001
    A8        2.08886   0.00000   0.00001  -0.00001  -0.00001   2.08885
    A9        2.08384   0.00000   0.00002  -0.00004  -0.00002   2.08382
   A10        2.11048   0.00001  -0.00002   0.00005   0.00003   2.11051
   A11        2.11073   0.00000  -0.00005   0.00004  -0.00001   2.11072
   A12        2.09074   0.00000  -0.00001   0.00001   0.00000   2.09074
   A13        2.08171   0.00000   0.00006  -0.00005   0.00001   2.08173
   A14        2.10625   0.00000  -0.00004   0.00003  -0.00002   2.10624
   A15        2.07847   0.00000  -0.00002   0.00003   0.00000   2.07847
   A16        2.09846   0.00000   0.00007  -0.00005   0.00002   2.09848
   A17        2.08792   0.00000   0.00002  -0.00002  -0.00001   2.08791
   A18        2.11717   0.00000   0.00003  -0.00001   0.00003   2.11719
   A19        2.07810   0.00000  -0.00005   0.00003  -0.00002   2.07808
   A20        2.15011   0.00001   0.00011  -0.00009   0.00002   2.15014
   A21        2.04046  -0.00001  -0.00014   0.00009  -0.00005   2.04041
   A22        2.09261   0.00000   0.00003   0.00000   0.00003   2.09264
   A23        2.16053   0.00001   0.00000   0.00002   0.00001   2.16055
   A24        2.11563   0.00004  -0.00024   0.00013  -0.00011   2.11551
   A25        2.00702  -0.00004   0.00027  -0.00016   0.00011   2.00712
   A26        1.90393  -0.00001  -0.00096  -0.00016  -0.00111   1.90282
   A27        1.90114   0.00001   0.00073   0.00015   0.00088   1.90203
   A28        1.98731  -0.00004   0.00040  -0.00011   0.00029   1.98760
   A29        1.87123   0.00002  -0.00016   0.00000  -0.00017   1.87107
   A30        1.89734   0.00001   0.00065   0.00008   0.00073   1.89808
   A31        1.89946   0.00001  -0.00070   0.00004  -0.00066   1.89880
    D1       -0.00019   0.00000  -0.00001   0.00009   0.00009  -0.00010
    D2        3.14146   0.00000   0.00001   0.00005   0.00007   3.14152
    D3       -0.00097   0.00000  -0.00111   0.00035  -0.00076  -0.00174
    D4        3.14074   0.00000  -0.00102   0.00031  -0.00071   3.14003
    D5        3.13969   0.00000  -0.00039   0.00038  -0.00001   3.13969
    D6       -0.00178   0.00000  -0.00030   0.00035   0.00004  -0.00174
    D7       -0.00191   0.00000   0.00120   0.00015   0.00136  -0.00056
    D8        3.13464   0.00000   0.00482  -0.00005   0.00478   3.13941
    D9        3.14061   0.00000   0.00048   0.00012   0.00059   3.14121
   D10       -0.00602   0.00000   0.00410  -0.00009   0.00401  -0.00200
   D11       -3.14144   0.00000   0.00013  -0.00005   0.00007  -3.14137
   D12        0.00039   0.00000   0.00017  -0.00008   0.00009   0.00047
   D13        0.00003   0.00000   0.00004  -0.00002   0.00002   0.00005
   D14       -3.14133   0.00000   0.00008  -0.00004   0.00004  -3.14129
   D15        3.14136   0.00000  -0.00008   0.00005  -0.00004   3.14132
   D16       -0.00015   0.00000  -0.00015   0.00002  -0.00013  -0.00028
   D17       -0.00012   0.00000   0.00000   0.00001   0.00001  -0.00011
   D18        3.14156   0.00000  -0.00006  -0.00002  -0.00008   3.14147
   D19        0.00005   0.00000  -0.00002   0.00000  -0.00002   0.00003
   D20       -3.14152   0.00000  -0.00006   0.00001  -0.00005  -3.14157
   D21        3.14140   0.00000  -0.00007   0.00003  -0.00003   3.14137
   D22       -0.00017   0.00000  -0.00010   0.00004  -0.00006  -0.00023
   D23        0.00012   0.00000  -0.00005   0.00001  -0.00005   0.00007
   D24       -3.14149   0.00000  -0.00005  -0.00002  -0.00008  -3.14157
   D25       -3.14155   0.00000   0.00001   0.00003   0.00005  -3.14151
   D26        0.00002   0.00000   0.00001   0.00001   0.00002   0.00003
   D27       -3.14158   0.00000  -0.00001  -0.00003  -0.00004   3.14156
   D28       -0.00004   0.00000  -0.00003   0.00001  -0.00002  -0.00006
   D29       -0.00001   0.00000   0.00003  -0.00004  -0.00001  -0.00003
   D30        3.14153   0.00000   0.00001   0.00000   0.00001   3.14154
   D31        3.14150   0.00000   0.00005   0.00002   0.00007   3.14157
   D32       -0.00004   0.00000   0.00007  -0.00002   0.00005   0.00001
   D33       -0.00007   0.00000   0.00005   0.00005   0.00010   0.00003
   D34        3.14157   0.00000   0.00007   0.00001   0.00008  -3.14153
   D35        1.07757   0.00001  -0.04142  -0.00180  -0.04323   1.03435
   D36       -0.95967  -0.00001  -0.04111  -0.00180  -0.04290  -1.00257
   D37       -3.08298   0.00000  -0.04101  -0.00189  -0.04290  -3.12588
   D38       -2.05912   0.00001  -0.04495  -0.00160  -0.04655  -2.10567
   D39        2.18682  -0.00001  -0.04463  -0.00160  -0.04623   2.14060
   D40        0.06351   0.00000  -0.04453  -0.00169  -0.04622   0.01729
         Item               Value     Threshold  Converged?
 Maximum Force            0.000044     0.000450     YES
 RMS     Force            0.000011     0.000300     YES
 Maximum Displacement     0.072867     0.001800     NO 
 RMS     Displacement     0.015166     0.001200     NO 
 Predicted change in Energy=-5.542703D-07
 GradGradGradGradGradGradGradGradGradGradGradGradGradGradGradGradGradGrad

                          Input orientation:                          
 ---------------------------------------------------------------------
 Center     Atomic      Atomic             Coordinates (Angstroms)
 Number     Number       Type             X           Y           Z
 ---------------------------------------------------------------------
      1          8           0        3.923113    0.384693    0.026131
      2          8           0       -2.616538    1.359655   -0.167819
      3          7           0       -1.586887   -0.709708    0.028428
      4          6           0       -0.211533   -0.356299    0.020987
      5          6           0        0.245465    0.967836   -0.088177
      6          6           0        0.727686   -1.399944    0.129304
      7          6           0        1.619331    1.228480   -0.087719
      8          6           0        2.094197   -1.135621    0.129250
      9          6           0        2.543246    0.184945    0.020228
     10          6           0       -2.687042    0.115413   -0.061690
     11          6           0       -4.027709   -0.596435   -0.025588
     12          1           0       -0.471718    1.770927   -0.171147
     13          1           0        0.385116   -2.428233    0.214401
     14          1           0       -1.772064   -1.699039    0.110941
     15          1           0        1.962188    2.256446   -0.172648
     16          1           0        2.821899   -1.933770    0.212228
     17          1           0       -4.574053   -0.375293   -0.947969
     18          1           0       -4.619619   -0.198676    0.804506
     19          1           0       -3.949907   -1.682157    0.085440
     20          1           0        4.149429    1.330980   -0.053688
 ---------------------------------------------------------------------
                    Distance matrix (angstroms):
                    1          2          3          4          5
     1  O    0.000000
     2  O    6.614772   0.000000
     3  N    5.617635   2.319689   0.000000
     4  C    4.200523   2.960439   1.420053   0.000000
     5  C    3.725348   2.889797   2.487019   1.405026   0.000000
     6  C    3.661466   4.345976   2.417405   1.408211   2.426153
     7  C    2.456085   4.238656   3.748319   2.423923   1.398371
     8  C    2.380530   5.339071   3.707013   2.436278   2.808846
     9  C    1.394262   5.295157   4.225929   2.807447   2.429911
    10  C    6.616220   1.250750   1.378145   2.521406   3.054001
    11  C    8.011296   2.416179   2.444046   3.824007   4.550921
    12  H    4.612494   2.183898   2.727083   2.151675   1.079903
    13  H    4.523873   4.848104   2.622348   2.164788   3.412381
    14  H    6.064996   3.185350   1.009888   2.060655   3.349969
    15  H    2.718124   4.665725   4.629734   3.404261   2.148206
    16  H    2.573437   6.369277   4.579247   3.424426   3.891988
    17  H    8.586517   2.729568   3.160434   4.468872   5.076514
    18  H    8.597934   2.717747   3.171894   4.479952   5.081995
    19  H    8.140014   3.330861   2.555928   3.967051   4.965255
    20  H    0.976243   6.766990   6.089045   4.676588   3.920969
                    6          7          8          9         10
     6  C    0.000000
     7  C    2.784015   0.000000
     8  C    1.391840   2.421063   0.000000
     9  C    2.412475   1.397940   1.399081   0.000000
    10  C    3.740741   4.447970   4.945885   5.231392   0.000000
    11  C    4.825287   5.934916   6.147554   6.617409   1.518361
    12  H    3.403419   2.161873   3.888724   3.412033   2.767737
    13  H    1.087186   3.871190   2.144541   3.394692   3.998063
    14  H    2.517646   4.484572   3.907140   4.709515   2.039416
    15  H    3.870964   1.086958   3.408032   2.160080   5.119733
    16  H    2.162771   3.396463   1.083272   2.145569   5.884098
    17  H    5.506256   6.455239   6.797356   7.204666   2.141750
    18  H    5.522011   6.461991   6.812426   7.215878   2.140982
    19  H    4.686303   6.286350   6.068921   6.756579   2.201757
    20  H    4.381753   2.532402   3.215831   1.974508   6.943702
                   11         12         13         14         15
    11  C    0.000000
    12  H    4.274419   0.000000
    13  H    4.783942   4.302994   0.000000
    14  H    2.514420   3.716334   2.279441   0.000000
    15  H    6.636220   2.481860   4.958143   5.447102   0.000000
    16  H    6.982990   4.971888   2.486445   4.601071   4.294781
    17  H    1.094615   4.694557   5.491722   3.274864   7.088696
    18  H    1.094361   4.694286   5.510582   3.292520   7.092435
    19  H    1.094154   4.907894   4.400645   2.178058   7.108591
    20  H    8.401268   4.643527   5.326688   6.653735   2.377953
                   16         17         18         19         20
    16  H    0.000000
    17  H    7.646895   0.000000
    18  H    7.664041   1.761942   0.000000
    19  H    6.777665   1.779153   1.779406   0.000000
    20  H    3.534352   8.933657   8.942737   8.642777   0.000000
 Stoichiometry    C8H9NO2
 Framework group  C1[X(C8H9NO2)]
 Deg. of freedom    54
 Full point group                 C1      NOp   1
 Largest Abelian subgroup         C1      NOp   1
 Largest concise Abelian subgroup C1      NOp   1
                         Standard orientation:                         
 ---------------------------------------------------------------------
 Center     Atomic      Atomic             Coordinates (Angstroms)
 Number     Number       Type             X           Y           Z
 ---------------------------------------------------------------------
      1          8           0        3.995578   -0.243204    0.000465
      2          8           0       -2.507475   -1.453779   -0.002730
      3          7           0       -1.549182    0.658714   -0.000187
      4          6           0       -0.162403    0.353105   -0.000181
      5          6           0        0.339674   -0.959151    0.000845
      6          6           0        0.740653    1.433636   -0.001055
      7          6           0        1.721787   -1.171765    0.001048
      8          6           0        2.115540    1.217063   -0.000789
      9          6           0        2.609551   -0.091898    0.000273
     10          6           0       -2.620549   -0.208152   -0.001121
     11          6           0       -3.984971    0.458002    0.002179
     12          1           0       -0.349681   -1.790403    0.001232
     13          1           0        0.363071    2.453148   -0.001964
     14          1           0       -1.768140    1.644579    0.000760
     15          1           0        2.099647   -2.190931    0.001822
     16          1           0        2.815582    2.043755   -0.001436
     17          1           0       -4.535972    0.138273    0.892321
     18          1           0       -4.550749    0.114679   -0.869400
     19          1           0       -3.944159    1.551297   -0.012392
     20          1           0        4.254157   -1.184578    0.001289
 ---------------------------------------------------------------------
 Rotational constants (GHZ):      3.5672019      0.5406867      0.4708897
 Standard basis: 6-31G (6D, 7F)
 There are   117 symmetry adapted cartesian basis functions of A   symmetry.
 There are   117 symmetry adapted basis functions of A   symmetry.
   117 basis functions,   278 primitive gaussians,   117 cartesian basis functions
    40 alpha electrons       40 beta electrons
       nuclear repulsion energy       567.9791796228 Hartrees.
 NAtoms=   20 NActive=   20 NUniq=   20 SFac= 1.00D+00 NAtFMM=   60 NAOKFM=F Big=F
 Integral buffers will be    262144 words long.
 Raffenetti 2 integral format.
 Two-electron integral symmetry is turned on.
 One-electron integrals computed using PRISM.
 NBasis=   117 RedAO= T EigKep=  5.94D-04  NBF=   117
 NBsUse=   117 1.00D-06 EigRej= -1.00D+00 NBFU=   117
 Initial guess from the checkpoint file:  "E:\Research\Paracetamol Project\paracetamol_opt_freq.chk"
 B after Tr=     0.000000    0.000000    0.000000
         Rot=    1.000000   -0.000733    0.000066    0.000000 Ang=  -0.08 deg.
 ExpMin= 1.61D-01 ExpMax= 5.48D+03 ExpMxC= 8.25D+02 IAcc=1 IRadAn=         1 AccDes= 0.00D+00
 Harris functional with IExCor=  402 and IRadAn=       1 diagonalized for initial guess.
 HarFok:  IExCor=  402 AccDes= 0.00D+00 IRadAn=         1 IDoV= 1 UseB2=F ITyADJ=14
 ICtDFT=  3500011 ScaDFX=  1.000000  1.000000  1.000000  1.000000
 FoFCou: FMM=F IPFlag=           0 FMFlag=      100000 FMFlg1=           0
         NFxFlg=           0 DoJE=T BraDBF=F KetDBF=T FulRan=T
         wScrn=  0.000000 ICntrl=     500 IOpCl=  0 I1Cent=   200000004 NGrid=           0
         NMat0=    1 NMatS0=      1 NMatT0=    0 NMatD0=    1 NMtDS0=    0 NMtDT0=    0
 Petite list used in FoFCou.
 Keep R1 ints in memory in canonical form, NReq=24825568.
 Requested convergence on RMS density matrix=1.00D-08 within 128 cycles.
 Requested convergence on MAX density matrix=1.00D-06.
 Requested convergence on             energy=1.00D-06.
 No special actions if energy rises.
 Integral accuracy reduced to 1.0D-05 until final iterations.
 Initial convergence to 1.0D-05 achieved.  Increase integral accuracy.
 SCF Done:  E(RB3LYP) =  -515.339639480     A.U. after   10 cycles
            NFock= 10  Conv=0.81D-08     -V/T= 2.0056
 Calling FoFJK, ICntrl=      2127 FMM=F ISym2X=0 I1Cent= 0 IOpClX= 0 NMat=1 NMatS=1 NMatT=0.
 ***** Axes restored to original set *****
 -------------------------------------------------------------------
 Center     Atomic                   Forces (Hartrees/Bohr)
 Number     Number              X              Y              Z
 -------------------------------------------------------------------
      1        8           0.000011244    0.000003264   -0.000000750
      2        8           0.000010084   -0.000007085    0.000005057
      3        7           0.000010093   -0.000022553    0.000008551
      4        6          -0.000001158    0.000004120   -0.000000707
      5        6           0.000003853    0.000006320    0.000008462
      6        6           0.000005450    0.000000851   -0.000004279
      7        6           0.000003990   -0.000005417   -0.000000308
      8        6          -0.000001681   -0.000001221    0.000001437
      9        6          -0.000017398    0.000018788   -0.000003169
     10        6          -0.000025000    0.000025099   -0.000034178
     11        6          -0.000036056    0.000019341   -0.000009427
     12        1          -0.000001220   -0.000004684   -0.000001906
     13        1           0.000003000   -0.000001054   -0.000001170
     14        1          -0.000000410   -0.000008764    0.000004213
     15        1          -0.000002672    0.000003399    0.000000703
     16        1          -0.000000821    0.000002497   -0.000000674
     17        1           0.000015007   -0.000010982   -0.000000783
     18        1          -0.000003227   -0.000018643    0.000019249
     19        1           0.000030196   -0.000009545    0.000009044
     20        1          -0.000003274    0.000006270    0.000000637
 -------------------------------------------------------------------
 Cartesian Forces:  Max     0.000036056 RMS     0.000011879

 GradGradGradGradGradGradGradGradGradGradGradGradGradGradGradGradGradGrad
 Berny optimization.
 Using GEDIIS/GDIIS optimizer.
 FormGI is forming the generalized inverse of G from B-inverse, IUseBI=4.
 GSVD:  received Info=                   1 from GESDD.
 Internal  Forces:  Max     0.000047667 RMS     0.000009977
 Search for a local minimum.
 Step number  28 out of a maximum of  101
 All quantities printed in internal units (Hartrees-Bohrs-Radians)
 Mixed Optimization -- En-DIIS/RFO-DIIS
 Swapping is turned off.
 Update second derivatives using D2CorX and points   24   25   26   27   28
 DE= -5.51D-07 DEPred=-5.54D-07 R= 9.95D-01
 Trust test= 9.95D-01 RLast= 1.10D-01 DXMaxT set to 3.59D-01
 ITU=  0  0  1  1  1  1 -1  0  0 -1  0  0  0  0  0  0  0 -1  1  0
 ITU=  0 -1  0  1  1  1  1  0
     Eigenvalues ---    0.00005   0.01136   0.01645   0.01715   0.02040
     Eigenvalues ---    0.02150   0.02156   0.02157   0.02157   0.02159
     Eigenvalues ---    0.02160   0.02171   0.02182   0.02193   0.03755
     Eigenvalues ---    0.06672   0.06826   0.12433   0.13644   0.15510
     Eigenvalues ---    0.15734   0.16012   0.16058   0.16320   0.16510
     Eigenvalues ---    0.17839   0.19146   0.22006   0.22700   0.23061
     Eigenvalues ---    0.25166   0.25812   0.26497   0.31346   0.34116
     Eigenvalues ---    0.34500   0.34665   0.35156   0.35177   0.35200
     Eigenvalues ---    0.35612   0.37806   0.39238   0.42292   0.42978
     Eigenvalues ---    0.44546   0.45191   0.46794   0.47379   0.50269
     Eigenvalues ---    0.52556   0.53418   0.55258   0.85735
 Eigenvalue     1 is   5.01D-05 Eigenvector:
                          D38       D39       D40       D35       D36
   1                   -0.42521  -0.42303  -0.42181  -0.39247  -0.39029
                          D37       D8        D10       D7        A26
   1                   -0.38907   0.04813   0.04051   0.01444  -0.00924
 En-DIIS/RFO-DIIS IScMMF=        0 using points:    28   27   26   25   24
 RFO step:  Lambda=-2.19913478D-08.
 DidBck=F Rises=F RFO-DIIS coefs:    1.01398    0.39822   -0.27138   -0.20583    0.06501
 Iteration  1 RMS(Cart)=  0.00577773 RMS(Int)=  0.00004134
 Iteration  2 RMS(Cart)=  0.00004337 RMS(Int)=  0.00000060
 Iteration  3 RMS(Cart)=  0.00000000 RMS(Int)=  0.00000060
 Variable       Old X    -DE/DX   Delta X   Delta X   Delta X     New X
                                 (Linear)    (Quad)   (Total)
    R1        2.63477   0.00001   0.00001   0.00001   0.00003   2.63480
    R2        1.84483   0.00000   0.00000   0.00000   0.00000   1.84483
    R3        2.36357   0.00000   0.00000  -0.00002  -0.00002   2.36355
    R4        2.68351   0.00000   0.00001   0.00000   0.00000   2.68352
    R5        2.60432   0.00002   0.00004   0.00000   0.00005   2.60436
    R6        1.90841   0.00001   0.00000   0.00001   0.00001   1.90842
    R7        2.65512   0.00000   0.00000   0.00000  -0.00001   2.65511
    R8        2.66113   0.00000   0.00000   0.00001   0.00001   2.66114
    R9        2.64254   0.00000   0.00001   0.00000   0.00001   2.64254
   R10        2.04072   0.00000  -0.00001   0.00000   0.00000   2.04072
   R11        2.63020  -0.00001  -0.00001   0.00000  -0.00001   2.63019
   R12        2.05448   0.00000   0.00000   0.00000   0.00000   2.05448
   R13        2.64172  -0.00001  -0.00002   0.00000  -0.00002   2.64171
   R14        2.05405   0.00000   0.00000   0.00000   0.00000   2.05405
   R15        2.64388   0.00001   0.00001   0.00000   0.00001   2.64389
   R16        2.04709   0.00000   0.00000   0.00000   0.00000   2.04709
   R17        2.86929   0.00000   0.00005  -0.00002   0.00003   2.86931
   R18        2.06852  -0.00001  -0.00026   0.00002  -0.00024   2.06828
   R19        2.06804   0.00001   0.00021   0.00002   0.00023   2.06827
   R20        2.06765   0.00001   0.00003  -0.00002   0.00002   2.06767
    A1        1.94760   0.00000  -0.00001   0.00000  -0.00001   1.94759
    A2        2.24441   0.00001  -0.00002   0.00002   0.00001   2.24441
    A3        2.00625   0.00000   0.00001  -0.00001   0.00000   2.00625
    A4        2.03252  -0.00001   0.00001  -0.00001  -0.00001   2.03252
    A5        2.15312   0.00001   0.00000   0.00001   0.00001   2.15314
    A6        2.05005  -0.00001  -0.00001   0.00001  -0.00001   2.05005
    A7        2.08001   0.00000   0.00001  -0.00001   0.00000   2.08000
    A8        2.08885   0.00000   0.00000   0.00000   0.00001   2.08886
    A9        2.08382   0.00000   0.00000   0.00000   0.00000   2.08382
   A10        2.11051   0.00000  -0.00001  -0.00001  -0.00001   2.11050
   A11        2.11072   0.00000  -0.00002   0.00001   0.00000   2.11072
   A12        2.09074   0.00000   0.00000   0.00000   0.00000   2.09073
   A13        2.08173   0.00000   0.00002  -0.00001   0.00001   2.08173
   A14        2.10624   0.00000  -0.00001   0.00001  -0.00001   2.10623
   A15        2.07847   0.00000   0.00000  -0.00001  -0.00001   2.07847
   A16        2.09848   0.00000   0.00001   0.00000   0.00002   2.09849
   A17        2.08791   0.00000   0.00001  -0.00001   0.00000   2.08791
   A18        2.11719   0.00000   0.00000   0.00000   0.00000   2.11720
   A19        2.07808   0.00000  -0.00001   0.00001   0.00000   2.07808
   A20        2.15014   0.00000   0.00003  -0.00001   0.00001   2.15015
   A21        2.04041   0.00000  -0.00003   0.00001  -0.00002   2.04039
   A22        2.09264   0.00000   0.00001   0.00000   0.00001   2.09265
   A23        2.16055   0.00001  -0.00002   0.00001  -0.00001   2.16054
   A24        2.11551   0.00004   0.00005   0.00007   0.00011   2.11563
   A25        2.00712  -0.00004  -0.00002  -0.00008  -0.00010   2.00702
   A26        1.90282   0.00000  -0.00031  -0.00001  -0.00032   1.90250
   A27        1.90203   0.00002   0.00035   0.00009   0.00044   1.90247
   A28        1.98760  -0.00005  -0.00013  -0.00012  -0.00025   1.98735
   A29        1.87107   0.00001   0.00013   0.00003   0.00016   1.87123
   A30        1.89808   0.00002   0.00027   0.00005   0.00032   1.89840
   A31        1.89880   0.00000  -0.00029  -0.00003  -0.00033   1.89847
    D1       -0.00010   0.00000   0.00000   0.00007   0.00007  -0.00003
    D2        3.14152   0.00000   0.00001   0.00006   0.00007   3.14159
    D3       -0.00174   0.00001  -0.00050   0.00048  -0.00002  -0.00175
    D4        3.14003   0.00000  -0.00044   0.00039  -0.00005   3.13998
    D5        3.13969   0.00001  -0.00018   0.00052   0.00034   3.14003
    D6       -0.00174   0.00001  -0.00012   0.00043   0.00031  -0.00143
    D7       -0.00056   0.00000   0.00049   0.00023   0.00072   0.00016
    D8        3.13941   0.00001   0.00230   0.00006   0.00235  -3.14142
    D9        3.14121   0.00000   0.00016   0.00019   0.00035   3.14156
   D10       -0.00200   0.00001   0.00197   0.00002   0.00199  -0.00002
   D11       -3.14137   0.00000   0.00009  -0.00014  -0.00005  -3.14142
   D12        0.00047   0.00000   0.00014  -0.00022  -0.00008   0.00040
   D13        0.00005   0.00000   0.00003  -0.00005  -0.00002   0.00004
   D14       -3.14129   0.00000   0.00008  -0.00013  -0.00005  -3.14134
   D15        3.14132   0.00000  -0.00007   0.00013   0.00006   3.14138
   D16       -0.00028   0.00000  -0.00010   0.00013   0.00003  -0.00025
   D17       -0.00011   0.00000  -0.00001   0.00004   0.00003  -0.00008
   D18        3.14147   0.00000  -0.00004   0.00004   0.00000   3.14148
   D19        0.00003   0.00000  -0.00001   0.00001   0.00001   0.00003
   D20       -3.14157   0.00000  -0.00003   0.00003   0.00000  -3.14157
   D21        3.14137   0.00000  -0.00006   0.00010   0.00003   3.14140
   D22       -0.00023   0.00000  -0.00009   0.00011   0.00003  -0.00020
   D23        0.00007   0.00000  -0.00002  -0.00001  -0.00002   0.00005
   D24       -3.14157   0.00000  -0.00003   0.00000  -0.00002   3.14159
   D25       -3.14151   0.00000   0.00001  -0.00001   0.00000  -3.14150
   D26        0.00003   0.00000   0.00000   0.00000   0.00000   0.00004
   D27        3.14156   0.00000  -0.00002   0.00001   0.00000   3.14156
   D28       -0.00006   0.00000  -0.00003   0.00002   0.00000  -0.00006
   D29       -0.00003   0.00000   0.00001   0.00000   0.00000  -0.00002
   D30        3.14154   0.00000   0.00000   0.00001   0.00000   3.14154
   D31        3.14157   0.00000   0.00003  -0.00002   0.00001   3.14159
   D32        0.00001   0.00000   0.00004  -0.00003   0.00001   0.00002
   D33        0.00003   0.00000   0.00004  -0.00002   0.00001   0.00004
   D34       -3.14153   0.00000   0.00004  -0.00003   0.00001  -3.14152
   D35        1.03435   0.00002  -0.01566  -0.00059  -0.01625   1.01810
   D36       -1.00257  -0.00001  -0.01584  -0.00067  -0.01650  -1.01907
   D37       -3.12588   0.00000  -0.01563  -0.00061  -0.01624   3.14107
   D38       -2.10567   0.00001  -0.01741  -0.00043  -0.01784  -2.12351
   D39        2.14060  -0.00002  -0.01759  -0.00050  -0.01809   2.12250
   D40        0.01729   0.00000  -0.01738  -0.00045  -0.01783  -0.00054
         Item               Value     Threshold  Converged?
 Maximum Force            0.000048     0.000450     YES
 RMS     Force            0.000010     0.000300     YES
 Maximum Displacement     0.026647     0.001800     NO 
 RMS     Displacement     0.005778     0.001200     NO 
 Predicted change in Energy=-7.596080D-08
 GradGradGradGradGradGradGradGradGradGradGradGradGradGradGradGradGradGrad

                          Input orientation:                          
 ---------------------------------------------------------------------
 Center     Atomic      Atomic             Coordinates (Angstroms)
 Number     Number       Type             X           Y           Z
 ---------------------------------------------------------------------
      1          8           0        3.923089    0.384754    0.027758
      2          8           0       -2.616467    1.359310   -0.172964
      3          7           0       -1.586907   -0.709715    0.027351
      4          6           0       -0.211553   -0.356289    0.020437
      5          6           0        0.245511    0.967708   -0.090088
      6          6           0        0.727601   -1.399784    0.130792
      7          6           0        1.619375    1.228378   -0.088922
      8          6           0        2.094103   -1.135435    0.131447
      9          6           0        2.543213    0.185002    0.021065
     10          6           0       -2.687038    0.115278   -0.064581
     11          6           0       -4.027709   -0.596423   -0.025291
     12          1           0       -0.471613    1.770682   -0.174664
     13          1           0        0.384976   -2.427965    0.216954
     14          1           0       -1.772130   -1.698920    0.111304
     15          1           0        1.962269    2.256243   -0.174918
     16          1           0        2.821759   -1.933459    0.216012
     17          1           0       -4.581954   -0.363267   -0.939816
     18          1           0       -4.612175   -0.209365    0.815229
     19          1           0       -3.949203   -1.683479    0.071338
     20          1           0        4.149455    1.330946   -0.053043
 ---------------------------------------------------------------------
                    Distance matrix (angstroms):
                    1          2          3          4          5
     1  O    0.000000
     2  O    6.614820   0.000000
     3  N    5.617643   2.319695   0.000000
     4  C    4.200531   2.960455   1.420055   0.000000
     5  C    3.725359   2.889834   2.487026   1.405024   0.000000
     6  C    3.661466   4.345993   2.417404   1.408215   2.426153
     7  C    2.456098   4.238698   3.748329   2.423928   1.398375
     8  C    2.380528   5.339090   3.707008   2.436276   2.808839
     9  C    1.394275   5.295181   4.225926   2.807442   2.429901
    10  C    6.616262   1.250737   1.378170   2.521434   3.054035
    11  C    8.011287   2.416259   2.443997   3.823978   4.550947
    12  H    4.612502   2.183948   2.727097   2.151673   1.079901
    13  H    4.523873   4.848108   2.622338   2.164789   3.412378
    14  H    6.064998   3.185355   1.009892   2.060659   3.349976
    15  H    2.718154   4.665760   4.629737   3.404260   2.148203
    16  H    2.573417   6.369296   4.579244   3.424427   3.891982
    17  H    8.592525   2.723688   3.166346   4.474656   5.079169
    18  H    8.592079   2.723990   3.165967   4.474232   5.079588
    19  H    8.139562   3.330831   2.555503   3.966617   4.964925
    20  H    0.976243   6.767045   6.089057   4.676597   3.920982
                    6          7          8          9         10
     6  C    0.000000
     7  C    2.784021   0.000000
     8  C    1.391836   2.421062   0.000000
     9  C    2.412474   1.397930   1.399084   0.000000
    10  C    3.740767   4.448008   4.945909   5.231416   0.000000
    11  C    4.825218   5.934940   6.147494   6.617386   1.518375
    12  H    3.403420   2.161868   3.888716   3.412017   2.767777
    13  H    1.087186   3.871195   2.144543   3.394695   3.998076
    14  H    2.517641   4.484581   3.907132   4.709510   2.039437
    15  H    3.870968   1.086958   3.408037   2.160080   5.119761
    16  H    2.162769   3.396458   1.083272   2.145569   5.884122
    17  H    5.514703   6.458625   6.805408   7.210541   2.141436
    18  H    5.513507   6.458855   6.804361   7.210118   2.141405
    19  H    4.685778   6.285989   6.068403   6.756124   2.201605
    20  H    4.381754   2.532413   3.215827   1.974512   6.943747
                   11         12         13         14         15
    11  C    0.000000
    12  H    4.274497   0.000000
    13  H    4.783829   4.302993   0.000000
    14  H    2.514318   3.716350   2.279424   0.000000
    15  H    6.636259   2.481844   4.958147   5.447107   0.000000
    16  H    6.982915   4.971879   2.486453   4.601064   4.294782
    17  H    1.094489   4.694050   5.501954   3.283890   7.090399
    18  H    1.094481   4.695182   5.500149   3.283312   7.091046
    19  H    1.094162   4.907686   4.400065   2.177495   7.108274
    20  H    8.401283   4.643536   5.326690   6.653741   2.377985
                   16         17         18         19         20
    16  H    0.000000
    17  H    7.656136   0.000000
    18  H    7.654733   1.762039   0.000000
    19  H    6.777119   1.779261   1.779302   0.000000
    20  H    3.534333   8.938358   8.938268   8.642367   0.000000
 Stoichiometry    C8H9NO2
 Framework group  C1[X(C8H9NO2)]
 Deg. of freedom    54
 Full point group                 C1      NOp   1
 Largest Abelian subgroup         C1      NOp   1
 Largest concise Abelian subgroup C1      NOp   1
                         Standard orientation:                         
 ---------------------------------------------------------------------
 Center     Atomic      Atomic             Coordinates (Angstroms)
 Number     Number       Type             X           Y           Z
 ---------------------------------------------------------------------
      1          8           0        3.995590   -0.243145   -0.000243
      2          8           0       -2.507491   -1.453833   -0.001528
      3          7           0       -1.549196    0.658665    0.000744
      4          6           0       -0.162413    0.353069    0.000360
      5          6           0        0.339691   -0.959174    0.000883
      6          6           0        0.740626    1.433621   -0.000423
      7          6           0        1.721810   -1.171768    0.000662
      8          6           0        2.115513    1.217068   -0.000590
      9          6           0        2.609544   -0.091889   -0.000033
     10          6           0       -2.620579   -0.208220   -0.000242
     11          6           0       -3.984948    0.458084    0.000319
     12          1           0       -0.349642   -1.790442    0.001242
     13          1           0        0.363020    2.453124   -0.000943
     14          1           0       -1.768164    1.644532    0.001721
     15          1           0        2.099676   -2.190931    0.001050
     16          1           0        2.815545    2.043768   -0.001193
     17          1           0       -4.543710    0.125412    0.880671
     18          1           0       -4.543127    0.127998   -0.881366
     19          1           0       -3.943669    1.551465    0.001985
     20          1           0        4.254191   -1.184514    0.000179
 ---------------------------------------------------------------------
 Rotational constants (GHZ):      3.5671436      0.5406871      0.4708890
 Standard basis: 6-31G (6D, 7F)
 There are   117 symmetry adapted cartesian basis functions of A   symmetry.
 There are   117 symmetry adapted basis functions of A   symmetry.
   117 basis functions,   278 primitive gaussians,   117 cartesian basis functions
    40 alpha electrons       40 beta electrons
       nuclear repulsion energy       567.9784022996 Hartrees.
 NAtoms=   20 NActive=   20 NUniq=   20 SFac= 1.00D+00 NAtFMM=   60 NAOKFM=F Big=F
 Integral buffers will be    262144 words long.
 Raffenetti 2 integral format.
 Two-electron integral symmetry is turned on.
 One-electron integrals computed using PRISM.
 NBasis=   117 RedAO= T EigKep=  5.94D-04  NBF=   117
 NBsUse=   117 1.00D-06 EigRej= -1.00D+00 NBFU=   117
 Initial guess from the checkpoint file:  "E:\Research\Paracetamol Project\paracetamol_opt_freq.chk"
 B after Tr=     0.000000    0.000000    0.000000
         Rot=    1.000000   -0.000274    0.000026    0.000000 Ang=  -0.03 deg.
 ExpMin= 1.61D-01 ExpMax= 5.48D+03 ExpMxC= 8.25D+02 IAcc=1 IRadAn=         1 AccDes= 0.00D+00
 Harris functional with IExCor=  402 and IRadAn=       1 diagonalized for initial guess.
 HarFok:  IExCor=  402 AccDes= 0.00D+00 IRadAn=         1 IDoV= 1 UseB2=F ITyADJ=14
 ICtDFT=  3500011 ScaDFX=  1.000000  1.000000  1.000000  1.000000
 FoFCou: FMM=F IPFlag=           0 FMFlag=      100000 FMFlg1=           0
         NFxFlg=           0 DoJE=T BraDBF=F KetDBF=T FulRan=T
         wScrn=  0.000000 ICntrl=     500 IOpCl=  0 I1Cent=   200000004 NGrid=           0
         NMat0=    1 NMatS0=      1 NMatT0=    0 NMatD0=    1 NMtDS0=    0 NMtDT0=    0
 Petite list used in FoFCou.
 Keep R1 ints in memory in canonical form, NReq=24825568.
 Requested convergence on RMS density matrix=1.00D-08 within 128 cycles.
 Requested convergence on MAX density matrix=1.00D-06.
 Requested convergence on             energy=1.00D-06.
 No special actions if energy rises.
 Integral accuracy reduced to 1.0D-05 until final iterations.
 Initial convergence to 1.0D-05 achieved.  Increase integral accuracy.
 SCF Done:  E(RB3LYP) =  -515.339639563     A.U. after    9 cycles
            NFock=  9  Conv=0.63D-08     -V/T= 2.0056
 Calling FoFJK, ICntrl=      2127 FMM=F ISym2X=0 I1Cent= 0 IOpClX= 0 NMat=1 NMatS=1 NMatT=0.
 ***** Axes restored to original set *****
 -------------------------------------------------------------------
 Center     Atomic                   Forces (Hartrees/Bohr)
 Number     Number              X              Y              Z
 -------------------------------------------------------------------
      1        8           0.000002683    0.000005329   -0.000000429
      2        8           0.000003406    0.000000843   -0.000002578
      3        7           0.000007076   -0.000014282    0.000004654
      4        6          -0.000003116    0.000000482   -0.000004794
      5        6           0.000004174    0.000006955    0.000009712
      6        6           0.000002946    0.000002406   -0.000004326
      7        6          -0.000001514   -0.000002125   -0.000000532
      8        6          -0.000000927    0.000000180    0.000001095
      9        6          -0.000004632    0.000011504   -0.000001392
     10        6          -0.000014883    0.000007029   -0.000006106
     11        6          -0.000007282    0.000002645   -0.000009515
     12        1          -0.000002898   -0.000003698   -0.000003487
     13        1           0.000003658   -0.000001153   -0.000001720
     14        1           0.000002342   -0.000003488    0.000005361
     15        1          -0.000001593    0.000003210    0.000000267
     16        1          -0.000000686    0.000002293   -0.000000888
     17        1           0.000005640   -0.000006349    0.000001252
     18        1          -0.000003058   -0.000010801    0.000007702
     19        1           0.000011188   -0.000006995    0.000005950
     20        1          -0.000002525    0.000006014   -0.000000228
 -------------------------------------------------------------------
 Cartesian Forces:  Max     0.000014883 RMS     0.000005491

 GradGradGradGradGradGradGradGradGradGradGradGradGradGradGradGradGradGrad
 Berny optimization.
 Using GEDIIS/GDIIS optimizer.
 FormGI is forming the generalized inverse of G from B-inverse, IUseBI=4.
 GSVD:  received Info=                   1 from GESDD.
 Internal  Forces:  Max     0.000018566 RMS     0.000004343
 Search for a local minimum.
 Step number  29 out of a maximum of  101
 All quantities printed in internal units (Hartrees-Bohrs-Radians)
 Mixed Optimization -- En-DIIS/RFO-DIIS
 Swapping is turned off.
 Update second derivatives using D2CorX and points   24   25   26   27   28
                                                     29
 DE= -8.24D-08 DEPred=-7.60D-08 R= 1.08D+00
 Trust test= 1.08D+00 RLast= 4.21D-02 DXMaxT set to 3.59D-01
 ITU=  0  0  0  1  1  1  1 -1  0  0 -1  0  0  0  0  0  0  0 -1  1
 ITU=  0  0 -1  0  1  1  1  1  0
     Eigenvalues ---    0.00006   0.01130   0.01629   0.01712   0.02039
     Eigenvalues ---    0.02150   0.02156   0.02157   0.02157   0.02159
     Eigenvalues ---    0.02161   0.02171   0.02182   0.02198   0.03854
     Eigenvalues ---    0.06393   0.06841   0.12413   0.13553   0.15246
     Eigenvalues ---    0.15747   0.16011   0.16060   0.16291   0.16428
     Eigenvalues ---    0.17833   0.19139   0.21991   0.22556   0.23026
     Eigenvalues ---    0.25101   0.25497   0.26477   0.31354   0.34099
     Eigenvalues ---    0.34496   0.34687   0.35157   0.35181   0.35200
     Eigenvalues ---    0.35619   0.37803   0.39261   0.42299   0.42973
     Eigenvalues ---    0.44560   0.45137   0.46789   0.47362   0.50161
     Eigenvalues ---    0.52518   0.53401   0.55052   0.85715
 Eigenvalue     1 is   5.64D-05 Eigenvector:
                          D38       D39       D40       D35       D36
   1                   -0.42466  -0.42274  -0.42148  -0.39279  -0.39088
                          D37       D8        D10       D7        A26
   1                   -0.38961   0.04680   0.04008   0.01401  -0.00925
 En-DIIS/RFO-DIIS IScMMF=        0 using points:    29   28   27   26   25
 RFO step:  Lambda=-4.51519992D-09.
 DidBck=F Rises=F RFO-DIIS coefs:    2.12670   -1.38746    0.15334   -0.00386    0.11129
 Iteration  1 RMS(Cart)=  0.00065436 RMS(Int)=  0.00000073
 Iteration  2 RMS(Cart)=  0.00000039 RMS(Int)=  0.00000063
 Variable       Old X    -DE/DX   Delta X   Delta X   Delta X     New X
                                 (Linear)    (Quad)   (Total)
    R1        2.63480   0.00000   0.00001   0.00000   0.00002   2.63482
    R2        1.84483   0.00000   0.00000   0.00000   0.00000   1.84483
    R3        2.36355   0.00000  -0.00003   0.00001  -0.00002   2.36353
    R4        2.68352   0.00000   0.00000   0.00000   0.00000   2.68351
    R5        2.60436   0.00001   0.00005   0.00000   0.00005   2.60441
    R6        1.90842   0.00000   0.00001   0.00000   0.00001   1.90843
    R7        2.65511   0.00000  -0.00001   0.00000  -0.00001   2.65510
    R8        2.66114   0.00000   0.00001   0.00000   0.00001   2.66115
    R9        2.64254   0.00000   0.00000   0.00001   0.00001   2.64255
   R10        2.04072   0.00000   0.00000   0.00000   0.00000   2.04072
   R11        2.63019   0.00000   0.00000   0.00000  -0.00001   2.63018
   R12        2.05448   0.00000   0.00000   0.00000   0.00000   2.05449
   R13        2.64171   0.00000  -0.00002   0.00000  -0.00001   2.64169
   R14        2.05405   0.00000   0.00000   0.00000   0.00000   2.05405
   R15        2.64389   0.00000   0.00000   0.00001   0.00001   2.64389
   R16        2.04709   0.00000   0.00000   0.00000   0.00000   2.04709
   R17        2.86931   0.00000   0.00001   0.00000   0.00001   2.86932
   R18        2.06828   0.00000   0.00001  -0.00003  -0.00001   2.06827
   R19        2.06827   0.00001  -0.00001   0.00001  -0.00001   2.06826
   R20        2.06767   0.00000   0.00001   0.00002   0.00003   2.06770
    A1        1.94759   0.00000  -0.00001   0.00000  -0.00001   1.94758
    A2        2.24441   0.00000   0.00002   0.00001   0.00003   2.24444
    A3        2.00625   0.00000  -0.00001  -0.00001  -0.00002   2.00623
    A4        2.03252   0.00000  -0.00001   0.00000  -0.00001   2.03251
    A5        2.15314   0.00001   0.00001   0.00001   0.00002   2.15315
    A6        2.05005  -0.00001   0.00000  -0.00001  -0.00001   2.05003
    A7        2.08000   0.00000  -0.00001   0.00000   0.00000   2.08000
    A8        2.08886   0.00000   0.00001   0.00000   0.00000   2.08886
    A9        2.08382   0.00000   0.00001  -0.00001   0.00000   2.08383
   A10        2.11050   0.00000  -0.00002   0.00001  -0.00001   2.11049
   A11        2.11072   0.00000   0.00000   0.00000   0.00000   2.11072
   A12        2.09073   0.00000   0.00000   0.00000   0.00000   2.09073
   A13        2.08173   0.00000   0.00000   0.00000   0.00000   2.08174
   A14        2.10623   0.00000   0.00000   0.00000   0.00000   2.10623
   A15        2.07847   0.00000  -0.00001   0.00000  -0.00001   2.07846
   A16        2.09849   0.00000   0.00001   0.00000   0.00001   2.09850
   A17        2.08791   0.00000   0.00000   0.00000   0.00000   2.08791
   A18        2.11720   0.00000   0.00000   0.00000   0.00000   2.11720
   A19        2.07808   0.00000   0.00000   0.00000   0.00000   2.07808
   A20        2.15015   0.00000   0.00001   0.00000   0.00001   2.15016
   A21        2.04039   0.00000  -0.00001   0.00000  -0.00001   2.04038
   A22        2.09265   0.00000   0.00000   0.00000   0.00000   2.09265
   A23        2.16054   0.00000  -0.00002   0.00000  -0.00002   2.16052
   A24        2.11563   0.00002   0.00017   0.00000   0.00017   2.11580
   A25        2.00702  -0.00002  -0.00016   0.00000  -0.00015   2.00687
   A26        1.90250   0.00000   0.00008  -0.00001   0.00006   1.90257
   A27        1.90247   0.00001   0.00010   0.00001   0.00011   1.90258
   A28        1.98735  -0.00002  -0.00032   0.00003  -0.00029   1.98706
   A29        1.87123   0.00000   0.00019   0.00000   0.00019   1.87142
   A30        1.89840   0.00001   0.00001  -0.00002   0.00000   1.89839
   A31        1.89847   0.00000  -0.00003  -0.00001  -0.00004   1.89843
    D1       -0.00003   0.00000   0.00007   0.00003   0.00010   0.00007
    D2        3.14159   0.00000   0.00008  -0.00001   0.00007  -3.14153
    D3       -0.00175   0.00001   0.00051   0.00041   0.00092  -0.00084
    D4        3.13998   0.00001   0.00042   0.00042   0.00085   3.14082
    D5        3.14003   0.00001   0.00050   0.00034   0.00084   3.14086
    D6       -0.00143   0.00001   0.00042   0.00035   0.00077  -0.00066
    D7        0.00016   0.00000   0.00011  -0.00006   0.00005   0.00021
    D8       -3.14142   0.00000   0.00002  -0.00003  -0.00001  -3.14142
    D9        3.14156   0.00000   0.00012   0.00002   0.00013  -3.14149
   D10       -0.00002   0.00000   0.00003   0.00005   0.00008   0.00006
   D11       -3.14142   0.00000  -0.00010  -0.00001  -0.00011  -3.14153
   D12        0.00040   0.00000  -0.00015  -0.00007  -0.00022   0.00018
   D13        0.00004   0.00000  -0.00002  -0.00002  -0.00004   0.00000
   D14       -3.14134   0.00000  -0.00006  -0.00008  -0.00015  -3.14148
   D15        3.14138   0.00000   0.00010   0.00002   0.00011   3.14150
   D16       -0.00025   0.00000   0.00010   0.00005   0.00015  -0.00010
   D17       -0.00008   0.00000   0.00002   0.00003   0.00005  -0.00003
   D18        3.14148   0.00000   0.00002   0.00006   0.00008   3.14156
   D19        0.00003   0.00000   0.00001  -0.00001   0.00000   0.00003
   D20       -3.14157   0.00000   0.00002  -0.00002   0.00000  -3.14157
   D21        3.14140   0.00000   0.00005   0.00005   0.00011   3.14151
   D22       -0.00020   0.00000   0.00007   0.00004   0.00011  -0.00009
   D23        0.00005   0.00000  -0.00001   0.00000  -0.00001   0.00004
   D24        3.14159   0.00000   0.00000   0.00002   0.00002  -3.14158
   D25       -3.14150   0.00000  -0.00001  -0.00004  -0.00005  -3.14155
   D26        0.00004   0.00000   0.00000  -0.00002  -0.00002   0.00002
   D27        3.14156   0.00000   0.00001  -0.00001   0.00000   3.14156
   D28       -0.00006   0.00000   0.00000   0.00003   0.00004  -0.00003
   D29       -0.00002   0.00000   0.00000   0.00000   0.00000  -0.00003
   D30        3.14154   0.00000  -0.00001   0.00004   0.00003   3.14157
   D31        3.14159   0.00000  -0.00001   0.00002   0.00000   3.14159
   D32        0.00002   0.00000   0.00000  -0.00002  -0.00003  -0.00001
   D33        0.00004   0.00000  -0.00002   0.00000  -0.00002   0.00002
   D34       -3.14152   0.00000  -0.00001  -0.00004  -0.00006  -3.14158
   D35        1.01810   0.00000   0.00126  -0.00030   0.00096   1.01906
   D36       -1.01907   0.00000   0.00093  -0.00030   0.00063  -1.01844
   D37        3.14107   0.00000   0.00111  -0.00031   0.00080  -3.14131
   D38       -2.12351   0.00000   0.00134  -0.00033   0.00102  -2.12249
   D39        2.12250   0.00000   0.00101  -0.00033   0.00069   2.12319
   D40       -0.00054   0.00000   0.00120  -0.00034   0.00086   0.00032
         Item               Value     Threshold  Converged?
 Maximum Force            0.000019     0.000450     YES
 RMS     Force            0.000004     0.000300     YES
 Maximum Displacement     0.002981     0.001800     NO 
 RMS     Displacement     0.000654     0.001200     YES
 Predicted change in Energy=-6.228040D-09
 GradGradGradGradGradGradGradGradGradGradGradGradGradGradGradGradGradGrad

                          Input orientation:                          
 ---------------------------------------------------------------------
 Center     Atomic      Atomic             Coordinates (Angstroms)
 Number     Number       Type             X           Y           Z
 ---------------------------------------------------------------------
      1          8           0        3.923093    0.384634    0.027661
      2          8           0       -2.616495    1.359369   -0.174036
      3          7           0       -1.586968   -0.709551    0.027571
      4          6           0       -0.211599   -0.356187    0.020502
      5          6           0        0.245526    0.967813   -0.089704
      6          6           0        0.727517   -1.399765    0.130445
      7          6           0        1.619407    1.228414   -0.088590
      8          6           0        2.094029   -1.135486    0.131058
      9          6           0        2.543195    0.184964    0.021035
     10          6           0       -2.687107    0.115417   -0.064880
     11          6           0       -4.027685   -0.596450   -0.025209
     12          1           0       -0.471556    1.770842   -0.174101
     13          1           0        0.384845   -2.427960    0.216282
     14          1           0       -1.772213   -1.698716    0.112022
     15          1           0        1.962339    2.256286   -0.174337
     16          1           0        2.821652   -1.933575    0.215291
     17          1           0       -4.581560   -0.364778   -0.940327
     18          1           0       -4.612591   -0.208562    0.814618
     19          1           0       -3.948724   -1.683356    0.072916
     20          1           0        4.149497    1.330846   -0.052814
 ---------------------------------------------------------------------
                    Distance matrix (angstroms):
                    1          2          3          4          5
     1  O    0.000000
     2  O    6.614908   0.000000
     3  N    5.617652   2.319699   0.000000
     4  C    4.200541   2.960490   1.420055   0.000000
     5  C    3.725369   2.889912   2.487034   1.405021   0.000000
     6  C    3.661469   4.346026   2.417399   1.408220   2.426151
     7  C    2.456104   4.238787   3.748339   2.423931   1.398379
     8  C    2.380532   5.339140   3.707002   2.436278   2.808837
     9  C    1.394285   5.295251   4.225926   2.807443   2.429897
    10  C    6.616327   1.250726   1.378197   2.521476   3.054101
    11  C    8.011254   2.416368   2.443907   3.823915   4.550979
    12  H    4.612507   2.184050   2.727116   2.151673   1.079900
    13  H    4.523877   4.848118   2.622325   2.164791   3.412376
    14  H    6.064980   3.185361   1.009898   2.060650   3.349977
    15  H    2.718168   4.665853   4.629745   3.404260   2.148203
    16  H    2.573417   6.369341   4.579236   3.424429   3.891979
    17  H    8.592307   2.724218   3.165956   4.474352   5.079381
    18  H    8.592385   2.724012   3.166201   4.474499   5.079661
    19  H    8.139050   3.330764   2.555043   3.966135   4.964562
    20  H    0.976244   6.767138   6.089065   4.676603   3.920988
                    6          7          8          9         10
     6  C    0.000000
     7  C    2.784020   0.000000
     8  C    1.391833   2.421060   0.000000
     9  C    2.412473   1.397923   1.399087   0.000000
    10  C    3.740800   4.448077   4.945949   5.231470   0.000000
    11  C    4.825089   5.934964   6.147387   6.617342   1.518380
    12  H    3.403421   2.161867   3.888713   3.412010   2.767856
    13  H    1.087187   3.871196   2.144542   3.394697   3.998088
    14  H    2.517610   4.484576   3.907098   4.709488   2.039462
    15  H    3.870968   1.086957   3.408038   2.160079   5.119829
    16  H    2.162766   3.396456   1.083272   2.145572   5.884156
    17  H    5.513987   6.458770   6.804803   7.210310   2.141482
    18  H    5.513965   6.458985   6.804792   7.210403   2.141487
    19  H    4.685185   6.285584   6.067817   6.755614   2.201420
    20  H    4.381755   2.532415   3.215828   1.974514   6.943815
                   11         12         13         14         15
    11  C    0.000000
    12  H    4.274610   0.000000
    13  H    4.783636   4.302994   0.000000
    14  H    2.514155   3.716370   2.279379   0.000000
    15  H    6.636320   2.481835   4.958148   5.447103   0.000000
    16  H    6.982776   4.971876   2.486452   4.601024   4.294783
    17  H    1.094482   4.694689   5.500877   3.283178   7.090792
    18  H    1.094477   4.695080   5.500737   3.283588   7.091066
    19  H    1.094179   4.907463   4.399410   2.176916   7.107924
    20  H    8.401282   4.643537   5.326691   6.653726   2.377996
                   16         17         18         19         20
    16  H    0.000000
    17  H    7.655333   0.000000
    18  H    7.655249   1.762157   0.000000
    19  H    6.776494   1.779267   1.779286   0.000000
    20  H    3.534332   8.938354   8.938479   8.641898   0.000000
 Stoichiometry    C8H9NO2
 Framework group  C1[X(C8H9NO2)]
 Deg. of freedom    54
 Full point group                 C1      NOp   1
 Largest Abelian subgroup         C1      NOp   1
 Largest concise Abelian subgroup C1      NOp   1
                         Standard orientation:                         
 ---------------------------------------------------------------------
 Center     Atomic      Atomic             Coordinates (Angstroms)
 Number     Number       Type             X           Y           Z
 ---------------------------------------------------------------------
      1          8           0        3.995606   -0.243063   -0.000137
      2          8           0       -2.507535   -1.453914   -0.000615
      3          7           0       -1.549216    0.658578    0.000375
      4          6           0       -0.162428    0.353009    0.000185
      5          6           0        0.339720   -0.959215    0.000407
      6          6           0        0.740581    1.433591   -0.000162
      7          6           0        1.721851   -1.171765    0.000278
      8          6           0        2.115472    1.217083   -0.000249
      9          6           0        2.609544   -0.091861   -0.000034
     10          6           0       -2.620630   -0.208312   -0.000114
     11          6           0       -3.984896    0.458215    0.000049
     12          1           0       -0.349579   -1.790510    0.000569
     13          1           0        0.362940    2.453082   -0.000371
     14          1           0       -1.768183    1.644453    0.000846
     15          1           0        2.099743   -2.190919    0.000429
     16          1           0        2.815477    2.043805   -0.000502
     17          1           0       -4.543375    0.126991    0.881119
     18          1           0       -4.543480    0.127233   -0.881039
     19          1           0       -3.943118    1.551596    0.000219
     20          1           0        4.254235   -1.184426   -0.000031
 ---------------------------------------------------------------------
 Rotational constants (GHZ):      3.5670574      0.5406871      0.4708876
 Standard basis: 6-31G (6D, 7F)
 There are   117 symmetry adapted cartesian basis functions of A   symmetry.
 There are   117 symmetry adapted basis functions of A   symmetry.
   117 basis functions,   278 primitive gaussians,   117 cartesian basis functions
    40 alpha electrons       40 beta electrons
       nuclear repulsion energy       567.9773240013 Hartrees.
 NAtoms=   20 NActive=   20 NUniq=   20 SFac= 1.00D+00 NAtFMM=   60 NAOKFM=F Big=F
 Integral buffers will be    262144 words long.
 Raffenetti 2 integral format.
 Two-electron integral symmetry is turned on.
 One-electron integrals computed using PRISM.
 NBasis=   117 RedAO= T EigKep=  5.94D-04  NBF=   117
 NBsUse=   117 1.00D-06 EigRej= -1.00D+00 NBFU=   117
 Initial guess from the checkpoint file:  "E:\Research\Paracetamol Project\paracetamol_opt_freq.chk"
 B after Tr=     0.000000    0.000000    0.000000
         Rot=    1.000000    0.000025   -0.000001   -0.000001 Ang=   0.00 deg.
 Keep R1 ints in memory in canonical form, NReq=24825568.
 Requested convergence on RMS density matrix=1.00D-08 within 128 cycles.
 Requested convergence on MAX density matrix=1.00D-06.
 Requested convergence on             energy=1.00D-06.
 No special actions if energy rises.
 SCF Done:  E(RB3LYP) =  -515.339639586     A.U. after    7 cycles
            NFock=  7  Conv=0.76D-08     -V/T= 2.0056
 Calling FoFJK, ICntrl=      2127 FMM=F ISym2X=0 I1Cent= 0 IOpClX= 0 NMat=1 NMatS=1 NMatT=0.
 ***** Axes restored to original set *****
 -------------------------------------------------------------------
 Center     Atomic                   Forces (Hartrees/Bohr)
 Number     Number              X              Y              Z
 -------------------------------------------------------------------
      1        8          -0.000003288    0.000006035    0.000000433
      2        8          -0.000007028    0.000005381    0.000000386
      3        7           0.000006411   -0.000009508    0.000004766
      4        6          -0.000004103   -0.000001384   -0.000005788
      5        6           0.000004365    0.000007655    0.000006039
      6        6           0.000000845    0.000003019   -0.000003264
      7        6          -0.000006563    0.000000903   -0.000000007
      8        6          -0.000000018    0.000001701    0.000000763
      9        6           0.000003289    0.000006573   -0.000002057
     10        6           0.000004967   -0.000010671    0.000000066
     11        6           0.000017707   -0.000021297   -0.000003694
     12        1          -0.000003944   -0.000003035   -0.000002156
     13        1           0.000004096   -0.000000387   -0.000000449
     14        1           0.000004256    0.000003411    0.000004062
     15        1          -0.000001063    0.000002964   -0.000000342
     16        1          -0.000000314    0.000002504   -0.000000017
     17        1          -0.000005631    0.000000806    0.000004296
     18        1          -0.000002901   -0.000000445   -0.000003622
     19        1          -0.000009127   -0.000000035    0.000001555
     20        1          -0.000001958    0.000005810   -0.000000974
 -------------------------------------------------------------------
 Cartesian Forces:  Max     0.000021297 RMS     0.000005474

 GradGradGradGradGradGradGradGradGradGradGradGradGradGradGradGradGradGrad
 Berny optimization.
 Using GEDIIS/GDIIS optimizer.
 FormGI is forming the generalized inverse of G from B-inverse, IUseBI=4.
 GSVD:  received Info=                   1 from GESDD.
 Internal  Forces:  Max     0.000018645 RMS     0.000004141
 Search for a local minimum.
 Step number  30 out of a maximum of  101
 All quantities printed in internal units (Hartrees-Bohrs-Radians)
 Mixed Optimization -- En-DIIS/RFO-DIIS
 Swapping is turned off.
 Update second derivatives using D2CorX and points   24   25   26   27   28
                                                     29   30
 DE= -2.34D-08 DEPred=-6.23D-09 R= 3.76D+00
 Trust test= 3.76D+00 RLast= 2.73D-03 DXMaxT set to 3.59D-01
 ITU=  0  0  0  0  1  1  1  1 -1  0  0 -1  0  0  0  0  0  0  0 -1
 ITU=  1  0  0 -1  0  1  1  1  1  0
     Eigenvalues ---    0.00005   0.00672   0.01522   0.01707   0.02038
     Eigenvalues ---    0.02141   0.02155   0.02157   0.02157   0.02158
     Eigenvalues ---    0.02160   0.02166   0.02178   0.02190   0.03855
     Eigenvalues ---    0.06637   0.08033   0.12264   0.13869   0.15454
     Eigenvalues ---    0.16010   0.16059   0.16180   0.16302   0.17469
     Eigenvalues ---    0.17871   0.19631   0.21946   0.22860   0.23189
     Eigenvalues ---    0.24987   0.26461   0.26802   0.31519   0.34093
     Eigenvalues ---    0.34613   0.34660   0.35149   0.35171   0.35202
     Eigenvalues ---    0.35705   0.37873   0.39493   0.42352   0.42968
     Eigenvalues ---    0.44708   0.45146   0.46746   0.47337   0.49778
     Eigenvalues ---    0.52503   0.53479   0.54989   0.85657
 Eigenvalue     1 is   4.81D-05 Eigenvector:
                          D38       D39       D40       D35       D36
   1                   -0.42449  -0.42385  -0.42154  -0.39160  -0.39095
                          D37       D8        D10       D5        D6
   1                   -0.38864   0.04785   0.04170   0.01488   0.01410
 En-DIIS/RFO-DIIS IScMMF=        0 using points:    30   29   28   27   26
 RFO step:  Lambda=-3.03676188D-09.
 DidBck=F Rises=F RFO-DIIS coefs:    1.00790   -0.18140    0.29364   -0.16924    0.04910
 Iteration  1 RMS(Cart)=  0.00037266 RMS(Int)=  0.00000016
 Iteration  2 RMS(Cart)=  0.00000017 RMS(Int)=  0.00000002
 Variable       Old X    -DE/DX   Delta X   Delta X   Delta X     New X
                                 (Linear)    (Quad)   (Total)
    R1        2.63482   0.00000   0.00000   0.00000   0.00000   2.63481
    R2        1.84483   0.00000   0.00000   0.00000   0.00000   1.84483
    R3        2.36353   0.00001   0.00000   0.00001   0.00001   2.36354
    R4        2.68351   0.00000   0.00000   0.00000   0.00000   2.68351
    R5        2.60441   0.00000  -0.00001   0.00001   0.00000   2.60441
    R6        1.90843  -0.00001   0.00000  -0.00001  -0.00001   1.90842
    R7        2.65510   0.00000   0.00000   0.00000   0.00000   2.65511
    R8        2.66115   0.00000   0.00000   0.00000   0.00000   2.66115
    R9        2.64255   0.00000   0.00000   0.00000   0.00000   2.64255
   R10        2.04072   0.00000   0.00000  -0.00001   0.00000   2.04071
   R11        2.63018   0.00000   0.00000  -0.00001  -0.00001   2.63018
   R12        2.05449   0.00000   0.00000   0.00000   0.00000   2.05449
   R13        2.64169   0.00000   0.00000  -0.00001  -0.00001   2.64169
   R14        2.05405   0.00000   0.00000   0.00000   0.00000   2.05405
   R15        2.64389   0.00000   0.00000   0.00001   0.00001   2.64390
   R16        2.04709   0.00000   0.00000   0.00000   0.00000   2.04709
   R17        2.86932   0.00000  -0.00001   0.00001   0.00000   2.86932
   R18        2.06827   0.00000   0.00000  -0.00001  -0.00001   2.06826
   R19        2.06826   0.00000   0.00001   0.00001   0.00002   2.06828
   R20        2.06770  -0.00001  -0.00001  -0.00001  -0.00001   2.06768
    A1        1.94758   0.00000   0.00000   0.00000   0.00000   1.94758
    A2        2.24444  -0.00001   0.00000  -0.00002  -0.00002   2.24442
    A3        2.00623   0.00000   0.00000   0.00000   0.00000   2.00623
    A4        2.03251   0.00001   0.00000   0.00002   0.00002   2.03253
    A5        2.15315   0.00000   0.00000   0.00001   0.00001   2.15316
    A6        2.05003   0.00000   0.00000  -0.00001  -0.00001   2.05002
    A7        2.08000   0.00000   0.00000   0.00000   0.00000   2.08000
    A8        2.08886   0.00000   0.00000   0.00000   0.00000   2.08886
    A9        2.08383   0.00000   0.00000  -0.00001  -0.00001   2.08382
   A10        2.11049   0.00000   0.00001   0.00000   0.00001   2.11050
   A11        2.11072   0.00000   0.00000   0.00000   0.00000   2.11072
   A12        2.09073   0.00000   0.00000   0.00000   0.00000   2.09073
   A13        2.08174   0.00000   0.00000   0.00000   0.00000   2.08173
   A14        2.10623   0.00000   0.00000   0.00000   0.00000   2.10623
   A15        2.07846   0.00000   0.00000   0.00000   0.00000   2.07846
   A16        2.09850   0.00000   0.00000   0.00000   0.00000   2.09850
   A17        2.08791   0.00000   0.00000   0.00000   0.00000   2.08791
   A18        2.11720   0.00000   0.00000  -0.00001  -0.00001   2.11719
   A19        2.07808   0.00000   0.00000   0.00001   0.00001   2.07809
   A20        2.15016   0.00000  -0.00001   0.00001   0.00000   2.15016
   A21        2.04038   0.00000   0.00001  -0.00001   0.00000   2.04037
   A22        2.09265   0.00000   0.00000   0.00000   0.00000   2.09265
   A23        2.16052   0.00000   0.00000   0.00000   0.00000   2.16052
   A24        2.11580  -0.00001  -0.00003  -0.00003  -0.00006   2.11574
   A25        2.00687   0.00002   0.00003   0.00003   0.00006   2.00692
   A26        1.90257   0.00000  -0.00004   0.00000  -0.00004   1.90252
   A27        1.90258  -0.00001   0.00000   0.00000   0.00000   1.90258
   A28        1.98706   0.00002   0.00008   0.00003   0.00011   1.98716
   A29        1.87142  -0.00001  -0.00005  -0.00004  -0.00009   1.87133
   A30        1.89839   0.00000   0.00001   0.00002   0.00003   1.89843
   A31        1.89843   0.00000   0.00000  -0.00002  -0.00002   1.89841
    D1        0.00007   0.00000   0.00000   0.00000   0.00000   0.00007
    D2       -3.14153   0.00000  -0.00001   0.00001   0.00001  -3.14152
    D3       -0.00084   0.00000  -0.00004   0.00033   0.00029  -0.00055
    D4        3.14082   0.00000  -0.00004   0.00029   0.00025   3.14108
    D5        3.14086   0.00000  -0.00004   0.00031   0.00028   3.14114
    D6       -0.00066   0.00000  -0.00003   0.00027   0.00024  -0.00042
    D7        0.00021   0.00000   0.00000  -0.00004  -0.00004   0.00017
    D8       -3.14142   0.00000   0.00000   0.00006   0.00006  -3.14136
    D9       -3.14149   0.00000   0.00000  -0.00003  -0.00003  -3.14152
   D10        0.00006   0.00000  -0.00001   0.00008   0.00007   0.00013
   D11       -3.14153   0.00000   0.00001  -0.00004  -0.00003  -3.14156
   D12        0.00018   0.00000   0.00001  -0.00010  -0.00009   0.00009
   D13        0.00000   0.00000   0.00000   0.00000   0.00000   0.00000
   D14       -3.14148   0.00000   0.00000  -0.00006  -0.00006  -3.14154
   D15        3.14150   0.00000  -0.00001   0.00006   0.00005   3.14155
   D16       -0.00010   0.00000  -0.00001   0.00006   0.00005  -0.00005
   D17       -0.00003   0.00000   0.00000   0.00002   0.00002  -0.00001
   D18        3.14156   0.00000   0.00000   0.00002   0.00002   3.14157
   D19        0.00003   0.00000   0.00000  -0.00001  -0.00002   0.00001
   D20       -3.14157   0.00000   0.00000  -0.00001  -0.00001  -3.14158
   D21        3.14151   0.00000   0.00000   0.00004   0.00004   3.14155
   D22       -0.00009   0.00000   0.00000   0.00005   0.00005  -0.00005
   D23        0.00004   0.00000   0.00000  -0.00002  -0.00002   0.00001
   D24       -3.14158   0.00000   0.00000  -0.00001  -0.00001  -3.14159
   D25       -3.14155   0.00000   0.00000  -0.00002  -0.00002  -3.14157
   D26        0.00002   0.00000   0.00000  -0.00001  -0.00001   0.00001
   D27        3.14156   0.00000   0.00000   0.00002   0.00002   3.14158
   D28       -0.00003   0.00000   0.00000   0.00001   0.00001  -0.00001
   D29       -0.00003   0.00000   0.00000   0.00002   0.00002  -0.00001
   D30        3.14157   0.00000   0.00000   0.00001   0.00001   3.14158
   D31        3.14159   0.00000   0.00000   0.00000   0.00000   3.14159
   D32       -0.00001   0.00000   0.00000   0.00001   0.00001   0.00000
   D33        0.00002   0.00000   0.00001  -0.00002  -0.00001   0.00001
   D34       -3.14158   0.00000   0.00000  -0.00001  -0.00001  -3.14159
   D35        1.01906  -0.00001  -0.00088  -0.00037  -0.00125   1.01782
   D36       -1.01844   0.00001  -0.00079  -0.00032  -0.00112  -1.01956
   D37       -3.14131   0.00000  -0.00085  -0.00032  -0.00116   3.14071
   D38       -2.12249  -0.00001  -0.00087  -0.00047  -0.00134  -2.12383
   D39        2.12319   0.00001  -0.00079  -0.00042  -0.00121   2.12198
   D40        0.00032   0.00000  -0.00084  -0.00041  -0.00125  -0.00093
         Item               Value     Threshold  Converged?
 Maximum Force            0.000019     0.000450     YES
 RMS     Force            0.000004     0.000300     YES
 Maximum Displacement     0.001679     0.001800     YES
 RMS     Displacement     0.000373     0.001200     YES
 Predicted change in Energy=-4.338502D-09
 Optimization completed.
    -- Stationary point found.
                           ----------------------------
                           !   Optimized Parameters   !
                           ! (Angstroms and Degrees)  !
 --------------------------                            --------------------------
 ! Name  Definition              Value          Derivative Info.                !
 --------------------------------------------------------------------------------
 ! R1    R(1,9)                  1.3943         -DE/DX =    0.0                 !
 ! R2    R(1,20)                 0.9762         -DE/DX =    0.0                 !
 ! R3    R(2,10)                 1.2507         -DE/DX =    0.0                 !
 ! R4    R(3,4)                  1.4201         -DE/DX =    0.0                 !
 ! R5    R(3,10)                 1.3782         -DE/DX =    0.0                 !
 ! R6    R(3,14)                 1.0099         -DE/DX =    0.0                 !
 ! R7    R(4,5)                  1.405          -DE/DX =    0.0                 !
 ! R8    R(4,6)                  1.4082         -DE/DX =    0.0                 !
 ! R9    R(5,7)                  1.3984         -DE/DX =    0.0                 !
 ! R10   R(5,12)                 1.0799         -DE/DX =    0.0                 !
 ! R11   R(6,8)                  1.3918         -DE/DX =    0.0                 !
 ! R12   R(6,13)                 1.0872         -DE/DX =    0.0                 !
 ! R13   R(7,9)                  1.3979         -DE/DX =    0.0                 !
 ! R14   R(7,15)                 1.087          -DE/DX =    0.0                 !
 ! R15   R(8,9)                  1.3991         -DE/DX =    0.0                 !
 ! R16   R(8,16)                 1.0833         -DE/DX =    0.0                 !
 ! R17   R(10,11)                1.5184         -DE/DX =    0.0                 !
 ! R18   R(11,17)                1.0945         -DE/DX =    0.0                 !
 ! R19   R(11,18)                1.0945         -DE/DX =    0.0                 !
 ! R20   R(11,19)                1.0942         -DE/DX =    0.0                 !
 ! A1    A(9,1,20)             111.588          -DE/DX =    0.0                 !
 ! A2    A(4,3,10)             128.5972         -DE/DX =    0.0                 !
 ! A3    A(4,3,14)             114.9485         -DE/DX =    0.0                 !
 ! A4    A(10,3,14)            116.4543         -DE/DX =    0.0                 !
 ! A5    A(3,4,5)              123.3665         -DE/DX =    0.0                 !
 ! A6    A(3,4,6)              117.4583         -DE/DX =    0.0                 !
 ! A7    A(5,4,6)              119.1752         -DE/DX =    0.0                 !
 ! A8    A(4,5,7)              119.683          -DE/DX =    0.0                 !
 ! A9    A(4,5,12)             119.3946         -DE/DX =    0.0                 !
 ! A10   A(7,5,12)             120.9224         -DE/DX =    0.0                 !
 ! A11   A(4,6,8)              120.9354         -DE/DX =    0.0                 !
 ! A12   A(4,6,13)             119.7899         -DE/DX =    0.0                 !
 ! A13   A(8,6,13)             119.2747         -DE/DX =    0.0                 !
 ! A14   A(5,7,9)              120.6779         -DE/DX =    0.0                 !
 ! A15   A(5,7,15)             119.087          -DE/DX =    0.0                 !
 ! A16   A(9,7,15)             120.2352         -DE/DX =    0.0                 !
 ! A17   A(6,8,9)              119.6285         -DE/DX =    0.0                 !
 ! A18   A(6,8,16)             121.3064         -DE/DX =    0.0                 !
 ! A19   A(9,8,16)             119.0652         -DE/DX =    0.0                 !
 ! A20   A(1,9,7)              123.195          -DE/DX =    0.0                 !
 ! A21   A(1,9,8)              116.9051         -DE/DX =    0.0                 !
 ! A22   A(7,9,8)              119.9            -DE/DX =    0.0                 !
 ! A23   A(2,10,3)             123.7887         -DE/DX =    0.0                 !
 ! A24   A(2,10,11)            121.2263         -DE/DX =    0.0                 !
 ! A25   A(3,10,11)            114.985          -DE/DX =    0.0                 !
 ! A26   A(10,11,17)           109.009          -DE/DX =    0.0                 !
 ! A27   A(10,11,18)           109.0097         -DE/DX =    0.0                 !
 ! A28   A(10,11,19)           113.8501         -DE/DX =    0.0                 !
 ! A29   A(17,11,18)           107.2245         -DE/DX =    0.0                 !
 ! A30   A(17,11,19)           108.7699         -DE/DX =    0.0                 !
 ! A31   A(18,11,19)           108.7719         -DE/DX =    0.0                 !
 ! D1    D(20,1,9,7)             0.0041         -DE/DX =    0.0                 !
 ! D2    D(20,1,9,8)          -179.9963         -DE/DX =    0.0                 !
 ! D3    D(10,3,4,5)            -0.048          -DE/DX =    0.0                 !
 ! D4    D(10,3,4,6)           179.9559         -DE/DX =    0.0                 !
 ! D5    D(14,3,4,5)           179.9582         -DE/DX =    0.0                 !
 ! D6    D(14,3,4,6)            -0.0379         -DE/DX =    0.0                 !
 ! D7    D(4,3,10,2)             0.012          -DE/DX =    0.0                 !
 ! D8    D(4,3,10,11)         -179.9902         -DE/DX =    0.0                 !
 ! D9    D(14,3,10,2)         -179.9943         -DE/DX =    0.0                 !
 ! D10   D(14,3,10,11)           0.0035         -DE/DX =    0.0                 !
 ! D11   D(3,4,5,7)           -179.9961         -DE/DX =    0.0                 !
 ! D12   D(3,4,5,12)             0.0104         -DE/DX =    0.0                 !
 ! D13   D(6,4,5,7)             -0.0001         -DE/DX =    0.0                 !
 ! D14   D(6,4,5,12)          -179.9936         -DE/DX =    0.0                 !
 ! D15   D(3,4,6,8)            179.9944         -DE/DX =    0.0                 !
 ! D16   D(3,4,6,13)            -0.0058         -DE/DX =    0.0                 !
 ! D17   D(5,4,6,8)             -0.0018         -DE/DX =    0.0                 !
 ! D18   D(5,4,6,13)           179.9979         -DE/DX =    0.0                 !
 ! D19   D(4,5,7,9)              0.0018         -DE/DX =    0.0                 !
 ! D20   D(4,5,7,15)          -179.9987         -DE/DX =    0.0                 !
 ! D21   D(12,5,7,9)           179.9952         -DE/DX =    0.0                 !
 ! D22   D(12,5,7,15)           -0.0053         -DE/DX =    0.0                 !
 ! D23   D(4,6,8,9)              0.0021         -DE/DX =    0.0                 !
 ! D24   D(4,6,8,16)          -179.9991         -DE/DX =    0.0                 !
 ! D25   D(13,6,8,9)          -179.9976         -DE/DX =    0.0                 !
 ! D26   D(13,6,8,16)            0.0012         -DE/DX =    0.0                 !
 ! D27   D(5,7,9,1)            179.9981         -DE/DX =    0.0                 !
 ! D28   D(5,7,9,8)             -0.0014         -DE/DX =    0.0                 !
 ! D29   D(15,7,9,1)            -0.0015         -DE/DX =    0.0                 !
 ! D30   D(15,7,9,8)           179.999          -DE/DX =    0.0                 !
 ! D31   D(6,8,9,1)            179.9999         -DE/DX =    0.0                 !
 ! D32   D(6,8,9,7)             -0.0005         -DE/DX =    0.0                 !
 ! D33   D(16,8,9,1)             0.0011         -DE/DX =    0.0                 !
 ! D34   D(16,8,9,7)          -179.9993         -DE/DX =    0.0                 !
 ! D35   D(2,10,11,17)          58.3879         -DE/DX =    0.0                 !
 ! D36   D(2,10,11,18)         -58.3525         -DE/DX =    0.0                 !
 ! D37   D(2,10,11,19)         180.0161         -DE/DX =    0.0                 !
 ! D38   D(3,10,11,17)        -121.6099         -DE/DX =    0.0                 !
 ! D39   D(3,10,11,18)         121.6497         -DE/DX =    0.0                 !
 ! D40   D(3,10,11,19)           0.0183         -DE/DX =    0.0                 !
 --------------------------------------------------------------------------------
 GradGradGradGradGradGradGradGradGradGradGradGradGradGradGradGradGradGrad

                          Input orientation:                          
 ---------------------------------------------------------------------
 Center     Atomic      Atomic             Coordinates (Angstroms)
 Number     Number       Type             X           Y           Z
 ---------------------------------------------------------------------
      1          8           0        3.923093    0.384634    0.027661
      2          8           0       -2.616495    1.359369   -0.174036
      3          7           0       -1.586968   -0.709551    0.027571
      4          6           0       -0.211599   -0.356187    0.020502
      5          6           0        0.245526    0.967813   -0.089704
      6          6           0        0.727517   -1.399765    0.130445
      7          6           0        1.619407    1.228414   -0.088590
      8          6           0        2.094029   -1.135486    0.131058
      9          6           0        2.543195    0.184964    0.021035
     10          6           0       -2.687107    0.115417   -0.064880
     11          6           0       -4.027685   -0.596450   -0.025209
     12          1           0       -0.471556    1.770842   -0.174101
     13          1           0        0.384845   -2.427960    0.216282
     14          1           0       -1.772213   -1.698716    0.112022
     15          1           0        1.962339    2.256286   -0.174337
     16          1           0        2.821652   -1.933575    0.215291
     17          1           0       -4.581560   -0.364778   -0.940327
     18          1           0       -4.612591   -0.208562    0.814618
     19          1           0       -3.948724   -1.683356    0.072916
     20          1           0        4.149497    1.330846   -0.052814
 ---------------------------------------------------------------------
                    Distance matrix (angstroms):
                    1          2          3          4          5
     1  O    0.000000
     2  O    6.614908   0.000000
     3  N    5.617652   2.319699   0.000000
     4  C    4.200541   2.960490   1.420055   0.000000
     5  C    3.725369   2.889912   2.487034   1.405021   0.000000
     6  C    3.661469   4.346026   2.417399   1.408220   2.426151
     7  C    2.456104   4.238787   3.748339   2.423931   1.398379
     8  C    2.380532   5.339140   3.707002   2.436278   2.808837
     9  C    1.394285   5.295251   4.225926   2.807443   2.429897
    10  C    6.616327   1.250726   1.378197   2.521476   3.054101
    11  C    8.011254   2.416368   2.443907   3.823915   4.550979
    12  H    4.612507   2.184050   2.727116   2.151673   1.079900
    13  H    4.523877   4.848118   2.622325   2.164791   3.412376
    14  H    6.064980   3.185361   1.009898   2.060650   3.349977
    15  H    2.718168   4.665853   4.629745   3.404260   2.148203
    16  H    2.573417   6.369341   4.579236   3.424429   3.891979
    17  H    8.592307   2.724218   3.165956   4.474352   5.079381
    18  H    8.592385   2.724012   3.166201   4.474499   5.079661
    19  H    8.139050   3.330764   2.555043   3.966135   4.964562
    20  H    0.976244   6.767138   6.089065   4.676603   3.920988
                    6          7          8          9         10
     6  C    0.000000
     7  C    2.784020   0.000000
     8  C    1.391833   2.421060   0.000000
     9  C    2.412473   1.397923   1.399087   0.000000
    10  C    3.740800   4.448077   4.945949   5.231470   0.000000
    11  C    4.825089   5.934964   6.147387   6.617342   1.518380
    12  H    3.403421   2.161867   3.888713   3.412010   2.767856
    13  H    1.087187   3.871196   2.144542   3.394697   3.998088
    14  H    2.517610   4.484576   3.907098   4.709488   2.039462
    15  H    3.870968   1.086957   3.408038   2.160079   5.119829
    16  H    2.162766   3.396456   1.083272   2.145572   5.884156
    17  H    5.513987   6.458770   6.804803   7.210310   2.141482
    18  H    5.513965   6.458985   6.804792   7.210403   2.141487
    19  H    4.685185   6.285584   6.067817   6.755614   2.201420
    20  H    4.381755   2.532415   3.215828   1.974514   6.943815
                   11         12         13         14         15
    11  C    0.000000
    12  H    4.274610   0.000000
    13  H    4.783636   4.302994   0.000000
    14  H    2.514155   3.716370   2.279379   0.000000
    15  H    6.636320   2.481835   4.958148   5.447103   0.000000
    16  H    6.982776   4.971876   2.486452   4.601024   4.294783
    17  H    1.094482   4.694689   5.500877   3.283178   7.090792
    18  H    1.094477   4.695080   5.500737   3.283588   7.091066
    19  H    1.094179   4.907463   4.399410   2.176916   7.107924
    20  H    8.401282   4.643537   5.326691   6.653726   2.377996
                   16         17         18         19         20
    16  H    0.000000
    17  H    7.655333   0.000000
    18  H    7.655249   1.762157   0.000000
    19  H    6.776494   1.779267   1.779286   0.000000
    20  H    3.534332   8.938354   8.938479   8.641898   0.000000
 Stoichiometry    C8H9NO2
 Framework group  C1[X(C8H9NO2)]
 Deg. of freedom    54
 Full point group                 C1      NOp   1
 Largest Abelian subgroup         C1      NOp   1
 Largest concise Abelian subgroup C1      NOp   1
                         Standard orientation:                         
 ---------------------------------------------------------------------
 Center     Atomic      Atomic             Coordinates (Angstroms)
 Number     Number       Type             X           Y           Z
 ---------------------------------------------------------------------
      1          8           0        3.995606   -0.243063   -0.000137
      2          8           0       -2.507535   -1.453914   -0.000615
      3          7           0       -1.549216    0.658578    0.000375
      4          6           0       -0.162428    0.353009    0.000185
      5          6           0        0.339720   -0.959215    0.000407
      6          6           0        0.740581    1.433591   -0.000162
      7          6           0        1.721851   -1.171765    0.000278
      8          6           0        2.115472    1.217083   -0.000249
      9          6           0        2.609544   -0.091861   -0.000034
     10          6           0       -2.620630   -0.208312   -0.000114
     11          6           0       -3.984896    0.458215    0.000049
     12          1           0       -0.349579   -1.790510    0.000569
     13          1           0        0.362940    2.453082   -0.000371
     14          1           0       -1.768183    1.644453    0.000846
     15          1           0        2.099743   -2.190919    0.000429
     16          1           0        2.815477    2.043805   -0.000502
     17          1           0       -4.543375    0.126991    0.881119
     18          1           0       -4.543480    0.127233   -0.881039
     19          1           0       -3.943118    1.551596    0.000219
     20          1           0        4.254235   -1.184426   -0.000031
 ---------------------------------------------------------------------
 Rotational constants (GHZ):      3.5670574      0.5406871      0.4708876

 **********************************************************************

            Population analysis using the SCF density.

 **********************************************************************

 Orbital symmetries:
       Occupied  (A) (A) (A) (A) (A) (A) (A) (A) (A) (A) (A) (A)
                 (A) (A) (A) (A) (A) (A) (A) (A) (A) (A) (A) (A)
                 (A) (A) (A) (A) (A) (A) (A) (A) (A) (A) (A) (A)
                 (A) (A) (A) (A)
       Virtual   (A) (A) (A) (A) (A) (A) (A) (A) (A) (A) (A) (A)
                 (A) (A) (A) (A) (A) (A) (A) (A) (A) (A) (A) (A)
                 (A) (A) (A) (A) (A) (A) (A) (A) (A) (A) (A) (A)
                 (A) (A) (A) (A) (A) (A) (A) (A) (A) (A) (A) (A)
                 (A) (A) (A) (A) (A) (A) (A) (A) (A) (A) (A) (A)
                 (A) (A) (A) (A) (A) (A) (A) (A) (A) (A) (A) (A)
                 (A) (A) (A) (A) (A)
 The electronic state is 1-A.
 Alpha  occ. eigenvalues --  -19.17074 -19.11718 -14.37944 -10.30244 -10.24960
 Alpha  occ. eigenvalues --  -10.23526 -10.19724 -10.19519 -10.19138 -10.18927
 Alpha  occ. eigenvalues --  -10.18563  -1.05739  -1.04460  -0.94785  -0.85408
 Alpha  occ. eigenvalues --   -0.76900  -0.75712  -0.72762  -0.64053  -0.63426
 Alpha  occ. eigenvalues --   -0.57833  -0.54872  -0.54607  -0.48775  -0.46458
 Alpha  occ. eigenvalues --   -0.45815  -0.44816  -0.42952  -0.42668  -0.40986
 Alpha  occ. eigenvalues --   -0.40111  -0.39625  -0.38664  -0.37206  -0.34265
 Alpha  occ. eigenvalues --   -0.33778  -0.28563  -0.25721  -0.25053  -0.20618
 Alpha virt. eigenvalues --   -0.00959  -0.00426   0.04570   0.05586   0.06663
 Alpha virt. eigenvalues --    0.09936   0.12289   0.14143   0.16008   0.16657
 Alpha virt. eigenvalues --    0.17087   0.17468   0.19978   0.22060   0.22877
 Alpha virt. eigenvalues --    0.24683   0.29498   0.32112   0.33293   0.34573
 Alpha virt. eigenvalues --    0.37049   0.41471   0.50979   0.51346   0.53442
 Alpha virt. eigenvalues --    0.53748   0.55074   0.56890   0.58205   0.58884
 Alpha virt. eigenvalues --    0.59859   0.60106   0.61221   0.62632   0.63036
 Alpha virt. eigenvalues --    0.64035   0.66228   0.67010   0.67448   0.69391
 Alpha virt. eigenvalues --    0.70416   0.76218   0.77018   0.79352   0.81171
 Alpha virt. eigenvalues --    0.83547   0.85072   0.86725   0.88856   0.90208
 Alpha virt. eigenvalues --    0.91435   0.92597   0.93220   0.95308   0.96696
 Alpha virt. eigenvalues --    0.96751   0.99354   1.02943   1.03513   1.04514
 Alpha virt. eigenvalues --    1.07463   1.09748   1.12022   1.18758   1.20163
 Alpha virt. eigenvalues --    1.23561   1.28709   1.31584   1.37702   1.37791
 Alpha virt. eigenvalues --    1.40331   1.49291   1.64621   1.72271   1.82421
 Alpha virt. eigenvalues --    1.97809   2.07456
          Condensed to atoms (all electrons):
               1          2          3          4          5          6
     1  O    8.274695   0.000000   0.000000  -0.000072   0.005204   0.003727
     2  O    0.000000   8.094106  -0.120323   0.001116  -0.015845   0.000348
     3  N    0.000000  -0.120323   7.633912   0.133685  -0.053660  -0.053261
     4  C   -0.000072   0.001116   0.133685   4.719993   0.550732   0.496225
     5  C    0.005204  -0.015845  -0.053660   0.550732   5.013172  -0.063476
     6  C    0.003727   0.000348  -0.053261   0.496225  -0.063476   5.026159
     7  C   -0.084355   0.000626   0.006934  -0.025151   0.393342  -0.036098
     8  C   -0.059726  -0.000004   0.005571  -0.033406  -0.029494   0.525644
     9  C    0.251549  -0.000003   0.000409  -0.031616  -0.005227  -0.046312
    10  C    0.000000   0.560258   0.057862  -0.036170  -0.005788   0.005918
    11  C    0.000000  -0.093553  -0.150681   0.005295   0.000223  -0.000366
    12  H   -0.000030   0.029282  -0.012433  -0.026913   0.336250   0.004599
    13  H   -0.000058   0.000002  -0.007994  -0.048454   0.004574   0.344520
    14  H    0.000000   0.002640   0.300809  -0.030622   0.003488  -0.002214
    15  H   -0.005915  -0.000001  -0.000125   0.003583  -0.021619   0.000912
    16  H   -0.001157   0.000000  -0.000110   0.003785   0.000172  -0.032253
    17  H    0.000000   0.001013   0.002172  -0.000146   0.000010   0.000005
    18  H    0.000000   0.001015   0.002176  -0.000146   0.000010   0.000005
    19  H    0.000000   0.003187   0.006764   0.000593  -0.000031  -0.000006
    20  H    0.245357   0.000000   0.000000  -0.000043   0.000690  -0.000185
               7          8          9         10         11         12
     1  O   -0.084355  -0.059726   0.251549   0.000000   0.000000  -0.000030
     2  O    0.000626  -0.000004  -0.000003   0.560258  -0.093553   0.029282
     3  N    0.006934   0.005571   0.000409   0.057862  -0.150681  -0.012433
     4  C   -0.025151  -0.033406  -0.031616  -0.036170   0.005295  -0.026913
     5  C    0.393342  -0.029494  -0.005227  -0.005788   0.000223   0.336250
     6  C   -0.036098   0.525644  -0.046312   0.005918  -0.000366   0.004599
     7  C    5.273934  -0.098572   0.405294   0.000708   0.000005  -0.025720
     8  C   -0.098572   4.974493   0.502233  -0.000109  -0.000001   0.000347
     9  C    0.405294   0.502233   4.763343  -0.000018   0.000000   0.003102
    10  C    0.000708  -0.000109  -0.000018   4.690683   0.277469   0.001883
    11  C    0.000005  -0.000001   0.000000   0.277469   5.379219   0.000595
    12  H   -0.025720   0.000347   0.003102   0.001883   0.000595   0.500965
    13  H    0.000649  -0.023868   0.004619   0.000199   0.000012  -0.000149
    14  H   -0.000097   0.000247  -0.000007  -0.009938   0.001839  -0.000156
    15  H    0.351421   0.003883  -0.051638   0.000005   0.000000  -0.004142
    16  H    0.006691   0.341758  -0.027055   0.000000   0.000000   0.000007
    17  H    0.000000   0.000000   0.000000  -0.025187   0.363210  -0.000003
    18  H    0.000000   0.000000   0.000000  -0.025181   0.363210  -0.000003
    19  H    0.000000   0.000000   0.000000  -0.027497   0.334321  -0.000017
    20  H   -0.008682   0.008393  -0.033649   0.000000   0.000000  -0.000002
              13         14         15         16         17         18
     1  O   -0.000058   0.000000  -0.005915  -0.001157   0.000000   0.000000
     2  O    0.000002   0.002640  -0.000001   0.000000   0.001013   0.001015
     3  N   -0.007994   0.300809  -0.000125  -0.000110   0.002172   0.002176
     4  C   -0.048454  -0.030622   0.003583   0.003785  -0.000146  -0.000146
     5  C    0.004574   0.003488  -0.021619   0.000172   0.000010   0.000010
     6  C    0.344520  -0.002214   0.000912  -0.032253   0.000005   0.000005
     7  C    0.000649  -0.000097   0.351421   0.006691   0.000000   0.000000
     8  C   -0.023868   0.000247   0.003883   0.341758   0.000000   0.000000
     9  C    0.004619  -0.000007  -0.051638  -0.027055   0.000000   0.000000
    10  C    0.000199  -0.009938   0.000005   0.000000  -0.025187  -0.025181
    11  C    0.000012   0.001839   0.000000   0.000000   0.363210   0.363210
    12  H   -0.000149  -0.000156  -0.004142   0.000007  -0.000003  -0.000003
    13  H    0.602096   0.007052   0.000012  -0.004818   0.000000   0.000000
    14  H    0.007052   0.403462   0.000003  -0.000014  -0.000034  -0.000034
    15  H    0.000012   0.000003   0.595931  -0.000167   0.000000   0.000000
    16  H   -0.004818  -0.000014  -0.000167   0.569768   0.000000   0.000000
    17  H    0.000000  -0.000034   0.000000   0.000000   0.524894  -0.023847
    18  H    0.000000  -0.000034   0.000000   0.000000  -0.023847   0.524871
    19  H   -0.000011   0.003609   0.000000   0.000000  -0.027059  -0.027055
    20  H    0.000004   0.000000   0.004408  -0.000259   0.000000   0.000000
              19         20
     1  O    0.000000   0.245357
     2  O    0.003187   0.000000
     3  N    0.006764   0.000000
     4  C    0.000593  -0.000043
     5  C   -0.000031   0.000690
     6  C   -0.000006  -0.000185
     7  C    0.000000  -0.008682
     8  C    0.000000   0.008393
     9  C    0.000000  -0.033649
    10  C   -0.027497   0.000000
    11  C    0.334321   0.000000
    12  H   -0.000017  -0.000002
    13  H   -0.000011   0.000004
    14  H    0.003609   0.000000
    15  H    0.000000   0.004408
    16  H    0.000000  -0.000259
    17  H   -0.027059   0.000000
    18  H   -0.027055   0.000000
    19  H    0.601851   0.000000
    20  H    0.000000   0.413584
 Mulliken charges:
               1
     1  O   -0.629218
     2  O   -0.463861
     3  N   -0.751706
     4  C    0.317731
     5  C   -0.112726
     6  C   -0.173890
     7  C   -0.160928
     8  C   -0.117390
     9  C    0.264975
    10  C    0.534903
    11  C   -0.480798
    12  H    0.192539
    13  H    0.121612
    14  H    0.319968
    15  H    0.123452
    16  H    0.143653
    17  H    0.184971
    18  H    0.184979
    19  H    0.131351
    20  H    0.370385
 Sum of Mulliken charges =   0.00000
 Mulliken charges with hydrogens summed into heavy atoms:
               1
     1  O   -0.258833
     2  O   -0.463861
     3  N   -0.431739
     4  C    0.317731
     5  C    0.079813
     6  C   -0.052278
     7  C   -0.037476
     8  C    0.026263
     9  C    0.264975
    10  C    0.534903
    11  C    0.020502
 Electronic spatial extent (au):  <R**2>=           2264.8870
 Charge=              0.0000 electrons
 Dipole moment (field-independent basis, Debye):
    X=             -0.6075    Y=              2.2016    Z=              0.0019  Tot=              2.2839
 Quadrupole moment (field-independent basis, Debye-Ang):
   XX=            -59.8104   YY=            -59.0085   ZZ=            -66.7045
   XY=            -16.6006   XZ=             -0.0037   YZ=             -0.0024
 Traceless Quadrupole moment (field-independent basis, Debye-Ang):
   XX=              2.0307   YY=              2.8326   ZZ=             -4.8634
   XY=            -16.6006   XZ=             -0.0037   YZ=             -0.0024
 Octapole moment (field-independent basis, Debye-Ang**2):
  XXX=            -30.6017  YYY=              7.5337  ZZZ=             -0.0033  XYY=             26.1117
  XXY=            -10.4766  XXZ=              0.0122  XZZ=             -5.7483  YZZ=             -3.1210
  YYZ=              0.0064  XYZ=              0.0014
 Hexadecapole moment (field-independent basis, Debye-Ang**3):
 XXXX=          -2290.1834 YYYY=           -406.2759 ZZZZ=            -70.0138 XXXY=           -193.6299
 XXXZ=             -0.0022 YYYX=            -43.5398 YYYZ=             -0.0054 ZZZX=              0.0036
 ZZZY=              0.0057 XXYY=           -432.1090 XXZZ=           -410.1003 YYZZ=            -90.7956
 XXYZ=             -0.0168 YYXZ=             -0.0201 ZZXY=              1.8280
 N-N= 5.679773240013D+02 E-N=-2.338117954510D+03  KE= 5.124609417135D+02
 1|1|UNPC-EMON|FOpt|RB3LYP|6-31G|C8H9N1O2|IABDU|23-Aug-2026|0||# opt fr
 eq b3lyp/6-31g geom=connectivity||1983||0,1|O,3.9230929494,0.384634460
 9,0.0276609068|O,-2.6164954111,1.3593685843,-0.1740364783|N,-1.5869678
 714,-0.7095512352,0.027571077|C,-0.2115993525,-0.3561865668,0.02050153
 47|C,0.2455257088,0.9678131725,-0.0897044216|C,0.7275165566,-1.3997651
 796,0.1304447322|C,1.6194069918,1.2284137648,-0.0885902845|C,2.0940287
 566,-1.135485769,0.1310582531|C,2.5431953173,0.1849639553,0.0210348908
 |C,-2.6871072245,0.1154170649,-0.0648802653|C,-4.0276853704,-0.5964499
 88,-0.0252086927|H,-0.471556175,1.7708417327,-0.1741012764|H,0.3848454
 532,-2.4279598456,0.2162820331|H,-1.7722133202,-1.6987161376,0.1120216
 284|H,1.9623393199,2.2562860426,-0.1743372699|H,2.8216519409,-1.933575
 0789,0.2152910891|H,-4.5815601879,-0.3647777461,-0.9403273883|H,-4.612
 5911809,-0.2085619073,0.8146178247|H,-3.9487238368,-1.6833557479,0.072
 9158016|H,4.1494969362,1.3308464238,-0.0528136947||Version=IA32W-G09Re
 vD.01|State=1-A|HF=-515.3396396|RMSD=7.584e-009|RMSF=5.474e-006|Dipole
 =-0.2093511,-0.8707458,0.0731757|Quadrupole=0.669342,2.9311792,-3.6005
 213,12.2497885,-1.0137665,-0.3694234|PG=C01 [X(C8H9N1O2)]||@


 SEE YOU NOW,
 YOUR BAIT OF FALSEHOOD TAKES THIS CARP OF TRUTH.
 AND THUS DO WE OF WISDOM AND OF REACH...
 BY INDIRECTIONS FIND DIRECTIONS OUT.    -- HAMLET, II, 1
 Job cpu time:       0 days  0 hours 17 minutes 41.0 seconds.
 File lengths (MBytes):  RWF=      8 Int=      0 D2E=      0 Chk=      2 Scr=      1
 Normal termination of Gaussian 09 at Sun Aug 23 01:14:47 2026.
 Link1:  Proceeding to internal job step number  2.
 -----------------------------------------------------------------
 #N Geom=AllCheck Guess=TCheck SCRF=Check GenChk RB3LYP/6-31G Freq
 -----------------------------------------------------------------
 1/10=4,29=7,30=1,38=1,40=1/1,3;
 2/12=2,40=1/2;
 3/5=1,6=6,11=2,14=-4,16=1,25=1,30=1,70=2,71=2,74=-5,116=1,140=1/1,2,3;
 4/5=101/1;
 5/5=2,98=1/2;
 8/6=4,10=90,11=11/1;
 11/6=1,8=1,9=11,15=111,16=1/1,2,10;
 10/6=1/2;
 6/7=2,8=2,9=2,10=2,18=1,28=1/1;
 7/8=1,10=1,25=1/1,2,3,16;
 1/10=4,30=1/3;
 99//99;
 Structure from the checkpoint file:  "E:\Research\Paracetamol Project\paracetamol_opt_freq.chk"
 ----
 1983
 ----
 Charge =  0 Multiplicity = 1
 Redundant internal coordinates found in file.
 O,0,3.9230929494,0.3846344609,0.0276609068
 O,0,-2.6164954111,1.3593685843,-0.1740364783
 N,0,-1.5869678714,-0.7095512352,0.027571077
 C,0,-0.2115993525,-0.3561865668,0.0205015347
 C,0,0.2455257088,0.9678131725,-0.0897044216
 C,0,0.7275165566,-1.3997651796,0.1304447322
 C,0,1.6194069918,1.2284137648,-0.0885902845
 C,0,2.0940287566,-1.135485769,0.1310582531
 C,0,2.5431953173,0.1849639553,0.0210348908
 C,0,-2.6871072245,0.1154170649,-0.0648802653
 C,0,-4.0276853704,-0.596449988,-0.0252086927
 H,0,-0.471556175,1.7708417327,-0.1741012764
 H,0,0.3848454532,-2.4279598456,0.2162820331
 H,0,-1.7722133202,-1.6987161376,0.1120216284
 H,0,1.9623393199,2.2562860426,-0.1743372699
 H,0,2.8216519409,-1.9335750789,0.2152910891
 H,0,-4.5815601879,-0.3647777461,-0.9403273883
 H,0,-4.6125911809,-0.2085619073,0.8146178247
 H,0,-3.9487238368,-1.6833557479,0.0729158016
 H,0,4.1494969362,1.3308464238,-0.0528136947
 Recover connectivity data from disk.

 GradGradGradGradGradGradGradGradGradGradGradGradGradGradGradGradGradGrad
 Berny optimization.
 Initialization pass.
                           ----------------------------
                           !    Initial Parameters    !
                           ! (Angstroms and Degrees)  !
 --------------------------                            --------------------------
 ! Name  Definition              Value          Derivative Info.                !
 --------------------------------------------------------------------------------
 ! R1    R(1,9)                  1.3943         calculate D2E/DX2 analytically  !
 ! R2    R(1,20)                 0.9762         calculate D2E/DX2 analytically  !
 ! R3    R(2,10)                 1.2507         calculate D2E/DX2 analytically  !
 ! R4    R(3,4)                  1.4201         calculate D2E/DX2 analytically  !
 ! R5    R(3,10)                 1.3782         calculate D2E/DX2 analytically  !
 ! R6    R(3,14)                 1.0099         calculate D2E/DX2 analytically  !
 ! R7    R(4,5)                  1.405          calculate D2E/DX2 analytically  !
 ! R8    R(4,6)                  1.4082         calculate D2E/DX2 analytically  !
 ! R9    R(5,7)                  1.3984         calculate D2E/DX2 analytically  !
 ! R10   R(5,12)                 1.0799         calculate D2E/DX2 analytically  !
 ! R11   R(6,8)                  1.3918         calculate D2E/DX2 analytically  !
 ! R12   R(6,13)                 1.0872         calculate D2E/DX2 analytically  !
 ! R13   R(7,9)                  1.3979         calculate D2E/DX2 analytically  !
 ! R14   R(7,15)                 1.087          calculate D2E/DX2 analytically  !
 ! R15   R(8,9)                  1.3991         calculate D2E/DX2 analytically  !
 ! R16   R(8,16)                 1.0833         calculate D2E/DX2 analytically  !
 ! R17   R(10,11)                1.5184         calculate D2E/DX2 analytically  !
 ! R18   R(11,17)                1.0945         calculate D2E/DX2 analytically  !
 ! R19   R(11,18)                1.0945         calculate D2E/DX2 analytically  !
 ! R20   R(11,19)                1.0942         calculate D2E/DX2 analytically  !
 ! A1    A(9,1,20)             111.588          calculate D2E/DX2 analytically  !
 ! A2    A(4,3,10)             128.5972         calculate D2E/DX2 analytically  !
 ! A3    A(4,3,14)             114.9485         calculate D2E/DX2 analytically  !
 ! A4    A(10,3,14)            116.4543         calculate D2E/DX2 analytically  !
 ! A5    A(3,4,5)              123.3665         calculate D2E/DX2 analytically  !
 ! A6    A(3,4,6)              117.4583         calculate D2E/DX2 analytically  !
 ! A7    A(5,4,6)              119.1752         calculate D2E/DX2 analytically  !
 ! A8    A(4,5,7)              119.683          calculate D2E/DX2 analytically  !
 ! A9    A(4,5,12)             119.3946         calculate D2E/DX2 analytically  !
 ! A10   A(7,5,12)             120.9224         calculate D2E/DX2 analytically  !
 ! A11   A(4,6,8)              120.9354         calculate D2E/DX2 analytically  !
 ! A12   A(4,6,13)             119.7899         calculate D2E/DX2 analytically  !
 ! A13   A(8,6,13)             119.2747         calculate D2E/DX2 analytically  !
 ! A14   A(5,7,9)              120.6779         calculate D2E/DX2 analytically  !
 ! A15   A(5,7,15)             119.087          calculate D2E/DX2 analytically  !
 ! A16   A(9,7,15)             120.2352         calculate D2E/DX2 analytically  !
 ! A17   A(6,8,9)              119.6285         calculate D2E/DX2 analytically  !
 ! A18   A(6,8,16)             121.3064         calculate D2E/DX2 analytically  !
 ! A19   A(9,8,16)             119.0652         calculate D2E/DX2 analytically  !
 ! A20   A(1,9,7)              123.195          calculate D2E/DX2 analytically  !
 ! A21   A(1,9,8)              116.9051         calculate D2E/DX2 analytically  !
 ! A22   A(7,9,8)              119.9            calculate D2E/DX2 analytically  !
 ! A23   A(2,10,3)             123.7887         calculate D2E/DX2 analytically  !
 ! A24   A(2,10,11)            121.2263         calculate D2E/DX2 analytically  !
 ! A25   A(3,10,11)            114.985          calculate D2E/DX2 analytically  !
 ! A26   A(10,11,17)           109.009          calculate D2E/DX2 analytically  !
 ! A27   A(10,11,18)           109.0097         calculate D2E/DX2 analytically  !
 ! A28   A(10,11,19)           113.8501         calculate D2E/DX2 analytically  !
 ! A29   A(17,11,18)           107.2245         calculate D2E/DX2 analytically  !
 ! A30   A(17,11,19)           108.7699         calculate D2E/DX2 analytically  !
 ! A31   A(18,11,19)           108.7719         calculate D2E/DX2 analytically  !
 ! D1    D(20,1,9,7)             0.0041         calculate D2E/DX2 analytically  !
 ! D2    D(20,1,9,8)          -179.9963         calculate D2E/DX2 analytically  !
 ! D3    D(10,3,4,5)            -0.048          calculate D2E/DX2 analytically  !
 ! D4    D(10,3,4,6)           179.9559         calculate D2E/DX2 analytically  !
 ! D5    D(14,3,4,5)           179.9582         calculate D2E/DX2 analytically  !
 ! D6    D(14,3,4,6)            -0.0379         calculate D2E/DX2 analytically  !
 ! D7    D(4,3,10,2)             0.012          calculate D2E/DX2 analytically  !
 ! D8    D(4,3,10,11)         -179.9902         calculate D2E/DX2 analytically  !
 ! D9    D(14,3,10,2)         -179.9943         calculate D2E/DX2 analytically  !
 ! D10   D(14,3,10,11)           0.0035         calculate D2E/DX2 analytically  !
 ! D11   D(3,4,5,7)           -179.9961         calculate D2E/DX2 analytically  !
 ! D12   D(3,4,5,12)             0.0104         calculate D2E/DX2 analytically  !
 ! D13   D(6,4,5,7)             -0.0001         calculate D2E/DX2 analytically  !
 ! D14   D(6,4,5,12)          -179.9936         calculate D2E/DX2 analytically  !
 ! D15   D(3,4,6,8)            179.9944         calculate D2E/DX2 analytically  !
 ! D16   D(3,4,6,13)            -0.0058         calculate D2E/DX2 analytically  !
 ! D17   D(5,4,6,8)             -0.0018         calculate D2E/DX2 analytically  !
 ! D18   D(5,4,6,13)           179.9979         calculate D2E/DX2 analytically  !
 ! D19   D(4,5,7,9)              0.0018         calculate D2E/DX2 analytically  !
 ! D20   D(4,5,7,15)          -179.9987         calculate D2E/DX2 analytically  !
 ! D21   D(12,5,7,9)           179.9952         calculate D2E/DX2 analytically  !
 ! D22   D(12,5,7,15)           -0.0053         calculate D2E/DX2 analytically  !
 ! D23   D(4,6,8,9)              0.0021         calculate D2E/DX2 analytically  !
 ! D24   D(4,6,8,16)          -179.9991         calculate D2E/DX2 analytically  !
 ! D25   D(13,6,8,9)          -179.9976         calculate D2E/DX2 analytically  !
 ! D26   D(13,6,8,16)            0.0012         calculate D2E/DX2 analytically  !
 ! D27   D(5,7,9,1)            179.9981         calculate D2E/DX2 analytically  !
 ! D28   D(5,7,9,8)             -0.0014         calculate D2E/DX2 analytically  !
 ! D29   D(15,7,9,1)            -0.0015         calculate D2E/DX2 analytically  !
 ! D30   D(15,7,9,8)           179.999          calculate D2E/DX2 analytically  !
 ! D31   D(6,8,9,1)            179.9999         calculate D2E/DX2 analytically  !
 ! D32   D(6,8,9,7)             -0.0005         calculate D2E/DX2 analytically  !
 ! D33   D(16,8,9,1)             0.0011         calculate D2E/DX2 analytically  !
 ! D34   D(16,8,9,7)          -179.9993         calculate D2E/DX2 analytically  !
 ! D35   D(2,10,11,17)          58.3879         calculate D2E/DX2 analytically  !
 ! D36   D(2,10,11,18)         -58.3525         calculate D2E/DX2 analytically  !
 ! D37   D(2,10,11,19)        -179.9839         calculate D2E/DX2 analytically  !
 ! D38   D(3,10,11,17)        -121.6099         calculate D2E/DX2 analytically  !
 ! D39   D(3,10,11,18)         121.6497         calculate D2E/DX2 analytically  !
 ! D40   D(3,10,11,19)           0.0183         calculate D2E/DX2 analytically  !
 --------------------------------------------------------------------------------
 Trust Radius=3.00D-01 FncErr=1.00D-07 GrdErr=1.00D-07
 Number of steps in this run=      2 maximum allowed number of steps=      2.
 GradGradGradGradGradGradGradGradGradGradGradGradGradGradGradGradGradGrad

                          Input orientation:                          
 ---------------------------------------------------------------------
 Center     Atomic      Atomic             Coordinates (Angstroms)
 Number     Number       Type             X           Y           Z
 ---------------------------------------------------------------------
      1          8           0        3.923093    0.384634    0.027661
      2          8           0       -2.616495    1.359369   -0.174036
      3          7           0       -1.586968   -0.709551    0.027571
      4          6           0       -0.211599   -0.356187    0.020502
      5          6           0        0.245526    0.967813   -0.089704
      6          6           0        0.727517   -1.399765    0.130445
      7          6           0        1.619407    1.228414   -0.088590
      8          6           0        2.094029   -1.135486    0.131058
      9          6           0        2.543195    0.184964    0.021035
     10          6           0       -2.687107    0.115417   -0.064880
     11          6           0       -4.027685   -0.596450   -0.025209
     12          1           0       -0.471556    1.770842   -0.174101
     13          1           0        0.384845   -2.427960    0.216282
     14          1           0       -1.772213   -1.698716    0.112022
     15          1           0        1.962339    2.256286   -0.174337
     16          1           0        2.821652   -1.933575    0.215291
     17          1           0       -4.581560   -0.364778   -0.940327
     18          1           0       -4.612591   -0.208562    0.814618
     19          1           0       -3.948724   -1.683356    0.072916
     20          1           0        4.149497    1.330846   -0.052814
 ---------------------------------------------------------------------
                    Distance matrix (angstroms):
                    1          2          3          4          5
     1  O    0.000000
     2  O    6.614908   0.000000
     3  N    5.617652   2.319699   0.000000
     4  C    4.200541   2.960490   1.420055   0.000000
     5  C    3.725369   2.889912   2.487034   1.405021   0.000000
     6  C    3.661469   4.346026   2.417399   1.408220   2.426151
     7  C    2.456104   4.238787   3.748339   2.423931   1.398379
     8  C    2.380532   5.339140   3.707002   2.436278   2.808837
     9  C    1.394285   5.295251   4.225926   2.807443   2.429897
    10  C    6.616327   1.250726   1.378197   2.521476   3.054101
    11  C    8.011254   2.416368   2.443907   3.823915   4.550979
    12  H    4.612507   2.184050   2.727116   2.151673   1.079900
    13  H    4.523877   4.848118   2.622325   2.164791   3.412376
    14  H    6.064980   3.185361   1.009898   2.060650   3.349977
    15  H    2.718168   4.665853   4.629745   3.404260   2.148203
    16  H    2.573417   6.369341   4.579236   3.424429   3.891979
    17  H    8.592307   2.724218   3.165956   4.474352   5.079381
    18  H    8.592385   2.724012   3.166201   4.474499   5.079661
    19  H    8.139050   3.330764   2.555043   3.966135   4.964562
    20  H    0.976244   6.767138   6.089065   4.676603   3.920988
                    6          7          8          9         10
     6  C    0.000000
     7  C    2.784020   0.000000
     8  C    1.391833   2.421060   0.000000
     9  C    2.412473   1.397923   1.399087   0.000000
    10  C    3.740800   4.448077   4.945949   5.231470   0.000000
    11  C    4.825089   5.934964   6.147387   6.617342   1.518380
    12  H    3.403421   2.161867   3.888713   3.412010   2.767856
    13  H    1.087187   3.871196   2.144542   3.394697   3.998088
    14  H    2.517610   4.484576   3.907098   4.709488   2.039462
    15  H    3.870968   1.086957   3.408038   2.160079   5.119829
    16  H    2.162766   3.396456   1.083272   2.145572   5.884156
    17  H    5.513987   6.458770   6.804803   7.210310   2.141482
    18  H    5.513965   6.458985   6.804792   7.210403   2.141487
    19  H    4.685185   6.285584   6.067817   6.755614   2.201420
    20  H    4.381755   2.532415   3.215828   1.974514   6.943815
                   11         12         13         14         15
    11  C    0.000000
    12  H    4.274610   0.000000
    13  H    4.783636   4.302994   0.000000
    14  H    2.514155   3.716370   2.279379   0.000000
    15  H    6.636320   2.481835   4.958148   5.447103   0.000000
    16  H    6.982776   4.971876   2.486452   4.601024   4.294783
    17  H    1.094482   4.694689   5.500877   3.283178   7.090792
    18  H    1.094477   4.695080   5.500737   3.283588   7.091066
    19  H    1.094179   4.907463   4.399410   2.176916   7.107924
    20  H    8.401282   4.643537   5.326691   6.653726   2.377996
                   16         17         18         19         20
    16  H    0.000000
    17  H    7.655333   0.000000
    18  H    7.655249   1.762157   0.000000
    19  H    6.776494   1.779267   1.779286   0.000000
    20  H    3.534332   8.938354   8.938479   8.641898   0.000000
 Stoichiometry    C8H9NO2
 Framework group  C1[X(C8H9NO2)]
 Deg. of freedom    54
 Full point group                 C1      NOp   1
 Largest Abelian subgroup         C1      NOp   1
 Largest concise Abelian subgroup C1      NOp   1
                         Standard orientation:                         
 ---------------------------------------------------------------------
 Center     Atomic      Atomic             Coordinates (Angstroms)
 Number     Number       Type             X           Y           Z
 ---------------------------------------------------------------------
      1          8           0        3.995606   -0.243063   -0.000137
      2          8           0       -2.507535   -1.453914   -0.000615
      3          7           0       -1.549216    0.658578    0.000375
      4          6           0       -0.162428    0.353009    0.000185
      5          6           0        0.339720   -0.959215    0.000407
      6          6           0        0.740581    1.433591   -0.000162
      7          6           0        1.721851   -1.171765    0.000278
      8          6           0        2.115472    1.217083   -0.000249
      9          6           0        2.609544   -0.091861   -0.000034
     10          6           0       -2.620630   -0.208312   -0.000114
     11          6           0       -3.984896    0.458215    0.000049
     12          1           0       -0.349579   -1.790510    0.000569
     13          1           0        0.362940    2.453082   -0.000371
     14          1           0       -1.768183    1.644453    0.000846
     15          1           0        2.099743   -2.190919    0.000429
     16          1           0        2.815477    2.043805   -0.000502
     17          1           0       -4.543375    0.126991    0.881119
     18          1           0       -4.543480    0.127233   -0.881039
     19          1           0       -3.943118    1.551596    0.000219
     20          1           0        4.254235   -1.184426   -0.000031
 ---------------------------------------------------------------------
 Rotational constants (GHZ):      3.5670574      0.5406871      0.4708876
 Standard basis: 6-31G (6D, 7F)
 There are   117 symmetry adapted cartesian basis functions of A   symmetry.
 There are   117 symmetry adapted basis functions of A   symmetry.
   117 basis functions,   278 primitive gaussians,   117 cartesian basis functions
    40 alpha electrons       40 beta electrons
       nuclear repulsion energy       567.9773240013 Hartrees.
 NAtoms=   20 NActive=   20 NUniq=   20 SFac= 1.00D+00 NAtFMM=   60 NAOKFM=F Big=F
 Integral buffers will be    262144 words long.
 Raffenetti 2 integral format.
 Two-electron integral symmetry is turned on.
 One-electron integrals computed using PRISM.
 NBasis=   117 RedAO= T EigKep=  5.94D-04  NBF=   117
 NBsUse=   117 1.00D-06 EigRej= -1.00D+00 NBFU=   117
 Initial guess from the checkpoint file:  "E:\Research\Paracetamol Project\paracetamol_opt_freq.chk"
 B after Tr=     0.000000    0.000000    0.000000
         Rot=    1.000000    0.000000    0.000000    0.000000 Ang=   0.00 deg.
 Keep R1 ints in memory in canonical form, NReq=24825568.
 Requested convergence on RMS density matrix=1.00D-08 within 128 cycles.
 Requested convergence on MAX density matrix=1.00D-06.
 Requested convergence on             energy=1.00D-06.
 No special actions if energy rises.
 SCF Done:  E(RB3LYP) =  -515.339639586     A.U. after    1 cycles
            NFock=  1  Conv=0.46D-08     -V/T= 2.0056
 DoSCS=F DFT=T ScalE2(SS,OS)=  1.000000  1.000000
 Range of M.O.s used for correlation:     1   117
 NBasis=   117 NAE=    40 NBE=    40 NFC=     0 NFV=     0
 NROrb=    117 NOA=    40 NOB=    40 NVA=    77 NVB=    77
 Symmetrizing basis deriv contribution to polar:
 IMax=3 JMax=2 DiffMx= 0.00D+00
 G2DrvN: will do    21 centers at a time, making    1 passes.
 Calling FoFCou, ICntrl=  3107 FMM=F I1Cent=   0 AccDes= 0.00D+00.
 End of G2Drv F.D. properties file   721 does not exist.
 End of G2Drv F.D. properties file   722 does not exist.
 End of G2Drv F.D. properties file   788 does not exist.
          IDoAtm=11111111111111111111
          Differentiating once with respect to electric field.
                with respect to dipole field.
          Differentiating once with respect to nuclear coordinates.
 Keep R1 ints in memory in canonical form, NReq=24767077.
          There are    63 degrees of freedom in the 1st order CPHF.  IDoFFX=6 NUNeed=     3.
     60 vectors produced by pass  0 Test12= 4.89D-15 1.59D-09 XBig12= 1.77D+02 1.00D+01.
 AX will form    60 AO Fock derivatives at one time.
     60 vectors produced by pass  1 Test12= 4.89D-15 1.59D-09 XBig12= 3.13D+01 1.76D+00.
     60 vectors produced by pass  2 Test12= 4.89D-15 1.59D-09 XBig12= 1.90D-01 6.11D-02.
     60 vectors produced by pass  3 Test12= 4.89D-15 1.59D-09 XBig12= 3.33D-04 4.42D-03.
     60 vectors produced by pass  4 Test12= 4.89D-15 1.59D-09 XBig12= 3.30D-07 1.28D-04.
     37 vectors produced by pass  5 Test12= 4.89D-15 1.59D-09 XBig12= 1.62D-10 1.69D-06.
      3 vectors produced by pass  6 Test12= 4.89D-15 1.59D-09 XBig12= 8.32D-14 5.07D-08.
 InvSVY:  IOpt=1 It=  1 EMax= 1.78D-15
 Solved reduced A of dimension   340 with    63 vectors.
 Isotropic polarizability for W=    0.000000       94.50 Bohr**3.
 End of Minotr F.D. properties file   721 does not exist.
 End of Minotr F.D. properties file   722 does not exist.
 End of Minotr F.D. properties file   788 does not exist.

 **********************************************************************

            Population analysis using the SCF density.

 **********************************************************************

 Orbital symmetries:
       Occupied  (A) (A) (A) (A) (A) (A) (A) (A) (A) (A) (A) (A)
                 (A) (A) (A) (A) (A) (A) (A) (A) (A) (A) (A) (A)
                 (A) (A) (A) (A) (A) (A) (A) (A) (A) (A) (A) (A)
                 (A) (A) (A) (A)
       Virtual   (A) (A) (A) (A) (A) (A) (A) (A) (A) (A) (A) (A)
                 (A) (A) (A) (A) (A) (A) (A) (A) (A) (A) (A) (A)
                 (A) (A) (A) (A) (A) (A) (A) (A) (A) (A) (A) (A)
                 (A) (A) (A) (A) (A) (A) (A) (A) (A) (A) (A) (A)
                 (A) (A) (A) (A) (A) (A) (A) (A) (A) (A) (A) (A)
                 (A) (A) (A) (A) (A) (A) (A) (A) (A) (A) (A) (A)
                 (A) (A) (A) (A) (A)
 The electronic state is 1-A.
 Alpha  occ. eigenvalues --  -19.17074 -19.11718 -14.37944 -10.30244 -10.24960
 Alpha  occ. eigenvalues --  -10.23526 -10.19724 -10.19519 -10.19138 -10.18927
 Alpha  occ. eigenvalues --  -10.18563  -1.05739  -1.04460  -0.94785  -0.85408
 Alpha  occ. eigenvalues --   -0.76900  -0.75712  -0.72762  -0.64053  -0.63426
 Alpha  occ. eigenvalues --   -0.57833  -0.54872  -0.54607  -0.48775  -0.46458
 Alpha  occ. eigenvalues --   -0.45815  -0.44816  -0.42952  -0.42668  -0.40986
 Alpha  occ. eigenvalues --   -0.40111  -0.39625  -0.38664  -0.37206  -0.34265
 Alpha  occ. eigenvalues --   -0.33778  -0.28563  -0.25721  -0.25053  -0.20618
 Alpha virt. eigenvalues --   -0.00959  -0.00426   0.04570   0.05586   0.06663
 Alpha virt. eigenvalues --    0.09936   0.12289   0.14143   0.16008   0.16657
 Alpha virt. eigenvalues --    0.17087   0.17468   0.19978   0.22060   0.22877
 Alpha virt. eigenvalues --    0.24683   0.29498   0.32112   0.33293   0.34573
 Alpha virt. eigenvalues --    0.37049   0.41471   0.50979   0.51346   0.53442
 Alpha virt. eigenvalues --    0.53748   0.55074   0.56890   0.58205   0.58884
 Alpha virt. eigenvalues --    0.59859   0.60106   0.61221   0.62632   0.63036
 Alpha virt. eigenvalues --    0.64035   0.66228   0.67010   0.67448   0.69391
 Alpha virt. eigenvalues --    0.70416   0.76218   0.77018   0.79352   0.81171
 Alpha virt. eigenvalues --    0.83547   0.85072   0.86725   0.88856   0.90208
 Alpha virt. eigenvalues --    0.91435   0.92597   0.93220   0.95308   0.96696
 Alpha virt. eigenvalues --    0.96751   0.99354   1.02943   1.03513   1.04514
 Alpha virt. eigenvalues --    1.07463   1.09748   1.12022   1.18758   1.20163
 Alpha virt. eigenvalues --    1.23561   1.28709   1.31584   1.37702   1.37791
 Alpha virt. eigenvalues --    1.40331   1.49291   1.64621   1.72271   1.82421
 Alpha virt. eigenvalues --    1.97809   2.07456
          Condensed to atoms (all electrons):
               1          2          3          4          5          6
     1  O    8.274695   0.000000   0.000000  -0.000072   0.005204   0.003727
     2  O    0.000000   8.094105  -0.120323   0.001116  -0.015845   0.000348
     3  N    0.000000  -0.120323   7.633913   0.133685  -0.053660  -0.053261
     4  C   -0.000072   0.001116   0.133685   4.719994   0.550732   0.496225
     5  C    0.005204  -0.015845  -0.053660   0.550732   5.013172  -0.063476
     6  C    0.003727   0.000348  -0.053261   0.496225  -0.063476   5.026159
     7  C   -0.084355   0.000626   0.006934  -0.025151   0.393342  -0.036098
     8  C   -0.059726  -0.000004   0.005571  -0.033406  -0.029494   0.525644
     9  C    0.251549  -0.000003   0.000409  -0.031616  -0.005227  -0.046312
    10  C    0.000000   0.560258   0.057862  -0.036170  -0.005788   0.005918
    11  C    0.000000  -0.093553  -0.150681   0.005295   0.000223  -0.000366
    12  H   -0.000030   0.029282  -0.012433  -0.026913   0.336250   0.004599
    13  H   -0.000058   0.000002  -0.007994  -0.048454   0.004574   0.344520
    14  H    0.000000   0.002640   0.300809  -0.030622   0.003488  -0.002214
    15  H   -0.005915  -0.000001  -0.000125   0.003583  -0.021619   0.000912
    16  H   -0.001157   0.000000  -0.000110   0.003785   0.000172  -0.032253
    17  H    0.000000   0.001013   0.002172  -0.000146   0.000010   0.000005
    18  H    0.000000   0.001015   0.002176  -0.000146   0.000010   0.000005
    19  H    0.000000   0.003187   0.006764   0.000593  -0.000031  -0.000006
    20  H    0.245357   0.000000   0.000000  -0.000043   0.000690  -0.000185
               7          8          9         10         11         12
     1  O   -0.084355  -0.059726   0.251549   0.000000   0.000000  -0.000030
     2  O    0.000626  -0.000004  -0.000003   0.560258  -0.093553   0.029282
     3  N    0.006934   0.005571   0.000409   0.057862  -0.150681  -0.012433
     4  C   -0.025151  -0.033406  -0.031616  -0.036170   0.005295  -0.026913
     5  C    0.393342  -0.029494  -0.005227  -0.005788   0.000223   0.336250
     6  C   -0.036098   0.525644  -0.046312   0.005918  -0.000366   0.004599
     7  C    5.273935  -0.098572   0.405294   0.000708   0.000005  -0.025720
     8  C   -0.098572   4.974493   0.502234  -0.000109  -0.000001   0.000347
     9  C    0.405294   0.502234   4.763342  -0.000018   0.000000   0.003102
    10  C    0.000708  -0.000109  -0.000018   4.690683   0.277469   0.001883
    11  C    0.000005  -0.000001   0.000000   0.277469   5.379219   0.000595
    12  H   -0.025720   0.000347   0.003102   0.001883   0.000595   0.500965
    13  H    0.000649  -0.023868   0.004619   0.000199   0.000012  -0.000149
    14  H   -0.000097   0.000247  -0.000007  -0.009938   0.001839  -0.000156
    15  H    0.351421   0.003883  -0.051638   0.000005   0.000000  -0.004142
    16  H    0.006691   0.341758  -0.027055   0.000000   0.000000   0.000007
    17  H    0.000000   0.000000   0.000000  -0.025187   0.363210  -0.000003
    18  H    0.000000   0.000000   0.000000  -0.025181   0.363210  -0.000003
    19  H    0.000000   0.000000   0.000000  -0.027498   0.334321  -0.000017
    20  H   -0.008682   0.008393  -0.033649   0.000000   0.000000  -0.000002
              13         14         15         16         17         18
     1  O   -0.000058   0.000000  -0.005915  -0.001157   0.000000   0.000000
     2  O    0.000002   0.002640  -0.000001   0.000000   0.001013   0.001015
     3  N   -0.007994   0.300809  -0.000125  -0.000110   0.002172   0.002176
     4  C   -0.048454  -0.030622   0.003583   0.003785  -0.000146  -0.000146
     5  C    0.004574   0.003488  -0.021619   0.000172   0.000010   0.000010
     6  C    0.344520  -0.002214   0.000912  -0.032253   0.000005   0.000005
     7  C    0.000649  -0.000097   0.351421   0.006691   0.000000   0.000000
     8  C   -0.023868   0.000247   0.003883   0.341758   0.000000   0.000000
     9  C    0.004619  -0.000007  -0.051638  -0.027055   0.000000   0.000000
    10  C    0.000199  -0.009938   0.000005   0.000000  -0.025187  -0.025181
    11  C    0.000012   0.001839   0.000000   0.000000   0.363210   0.363210
    12  H   -0.000149  -0.000156  -0.004142   0.000007  -0.000003  -0.000003
    13  H    0.602096   0.007052   0.000012  -0.004818   0.000000   0.000000
    14  H    0.007052   0.403461   0.000003  -0.000014  -0.000034  -0.000034
    15  H    0.000012   0.000003   0.595931  -0.000167   0.000000   0.000000
    16  H   -0.004818  -0.000014  -0.000167   0.569768   0.000000   0.000000
    17  H    0.000000  -0.000034   0.000000   0.000000   0.524894  -0.023847
    18  H    0.000000  -0.000034   0.000000   0.000000  -0.023847   0.524871
    19  H   -0.000011   0.003609   0.000000   0.000000  -0.027059  -0.027055
    20  H    0.000004   0.000000   0.004408  -0.000259   0.000000   0.000000
              19         20
     1  O    0.000000   0.245357
     2  O    0.003187   0.000000
     3  N    0.006764   0.000000
     4  C    0.000593  -0.000043
     5  C   -0.000031   0.000690
     6  C   -0.000006  -0.000185
     7  C    0.000000  -0.008682
     8  C    0.000000   0.008393
     9  C    0.000000  -0.033649
    10  C   -0.027498   0.000000
    11  C    0.334321   0.000000
    12  H   -0.000017  -0.000002
    13  H   -0.000011   0.000004
    14  H    0.003609   0.000000
    15  H    0.000000   0.004408
    16  H    0.000000  -0.000259
    17  H   -0.027059   0.000000
    18  H   -0.027055   0.000000
    19  H    0.601851   0.000000
    20  H    0.000000   0.413584
 Mulliken charges:
               1
     1  O   -0.629218
     2  O   -0.463861
     3  N   -0.751707
     4  C    0.317731
     5  C   -0.112726
     6  C   -0.173890
     7  C   -0.160929
     8  C   -0.117389
     9  C    0.264976
    10  C    0.534903
    11  C   -0.480798
    12  H    0.192539
    13  H    0.121612
    14  H    0.319968
    15  H    0.123452
    16  H    0.143653
    17  H    0.184971
    18  H    0.184979
    19  H    0.131351
    20  H    0.370385
 Sum of Mulliken charges =   0.00000
 Mulliken charges with hydrogens summed into heavy atoms:
               1
     1  O   -0.258833
     2  O   -0.463861
     3  N   -0.431739
     4  C    0.317731
     5  C    0.079813
     6  C   -0.052277
     7  C   -0.037477
     8  C    0.026263
     9  C    0.264976
    10  C    0.534903
    11  C    0.020502
 APT charges:
               1
     1  O   -0.756815
     2  O   -0.708684
     3  N   -0.864551
     4  C    0.333114
     5  C   -0.065416
     6  C   -0.017066
     7  C   -0.104699
     8  C   -0.090014
     9  C    0.526095
    10  C    1.083409
    11  C   -0.092393
    12  H    0.126140
    13  H    0.024731
    14  H    0.198475
    15  H    0.019955
    16  H    0.052490
    17  H    0.025551
    18  H    0.025595
    19  H   -0.009853
    20  H    0.293936
 Sum of APT charges =   0.00000
 APT charges with hydrogens summed into heavy atoms:
               1
     1  O   -0.462879
     2  O   -0.708684
     3  N   -0.666076
     4  C    0.333114
     5  C    0.060724
     6  C    0.007665
     7  C   -0.084744
     8  C   -0.037524
     9  C    0.526095
    10  C    1.083409
    11  C   -0.051101
 Electronic spatial extent (au):  <R**2>=           2264.8870
 Charge=              0.0000 electrons
 Dipole moment (field-independent basis, Debye):
    X=             -0.6075    Y=              2.2016    Z=              0.0019  Tot=              2.2839
 Quadrupole moment (field-independent basis, Debye-Ang):
   XX=            -59.8104   YY=            -59.0085   ZZ=            -66.7045
   XY=            -16.6006   XZ=             -0.0037   YZ=             -0.0024
 Traceless Quadrupole moment (field-independent basis, Debye-Ang):
   XX=              2.0307   YY=              2.8326   ZZ=             -4.8634
   XY=            -16.6006   XZ=             -0.0037   YZ=             -0.0024
 Octapole moment (field-independent basis, Debye-Ang**2):
  XXX=            -30.6017  YYY=              7.5337  ZZZ=             -0.0033  XYY=             26.1117
  XXY=            -10.4766  XXZ=              0.0122  XZZ=             -5.7483  YZZ=             -3.1210
  YYZ=              0.0064  XYZ=              0.0014
 Hexadecapole moment (field-independent basis, Debye-Ang**3):
 XXXX=          -2290.1831 YYYY=           -406.2760 ZZZZ=            -70.0138 XXXY=           -193.6299
 XXXZ=             -0.0022 YYYX=            -43.5398 YYYZ=             -0.0054 ZZZX=              0.0036
 ZZZY=              0.0057 XXYY=           -432.1090 XXZZ=           -410.1003 YYZZ=            -90.7956
 XXYZ=             -0.0168 YYXZ=             -0.0201 ZZXY=              1.8280
 N-N= 5.679773240013D+02 E-N=-2.338117953810D+03  KE= 5.124609410755D+02
  Exact polarizability: 147.718  -1.006  99.209  -0.002  -0.004  36.579
 Approx polarizability: 206.748   6.246 176.676  -0.004  -0.003  48.101
 Calling FoFJK, ICntrl=    100127 FMM=F ISym2X=0 I1Cent= 0 IOpClX= 0 NMat=1 NMatS=1 NMatT=0.
 Full mass-weighted force constant matrix:
 Low frequencies ---   -8.2219    0.0009    0.0009    0.0010    1.9878    3.4442
 Low frequencies ---   28.3269   59.2969   79.8946
 Diagonal vibrational polarizability:
       32.1291066       3.2443338     214.3379541
 Harmonic frequencies (cm**-1), IR intensities (KM/Mole), Raman scattering
 activities (A**4/AMU), depolarization ratios for plane and unpolarized
 incident light, reduced masses (AMU), force constants (mDyne/A),
 and normal coordinates:
                      1                      2                      3
                      A                      A                      A
 Frequencies --     28.1582                59.2863                79.8930
 Red. masses --      1.1196                 5.4194                 3.2564
 Frc consts  --      0.0005                 0.0112                 0.0122
 IR Inten    --      2.4443                 9.9538                 1.8405
  Atom  AN      X      Y      Z        X      Y      Z        X      Y      Z
     1   8     0.00   0.00   0.02     0.00   0.00   0.10     0.00   0.00   0.20
     2   8     0.00   0.00  -0.05     0.00   0.00   0.36     0.00   0.00  -0.08
     3   7     0.00   0.00  -0.02     0.00   0.00  -0.18     0.00   0.00  -0.10
     4   6     0.00   0.00  -0.01     0.00   0.00  -0.12     0.00   0.00  -0.14
     5   6     0.00   0.00  -0.01     0.00   0.00  -0.27     0.00   0.00  -0.11
     6   6     0.00   0.00  -0.01     0.00   0.00   0.10     0.00   0.00  -0.14
     7   6     0.00   0.00   0.00     0.00   0.00  -0.21     0.00   0.00  -0.01
     8   6     0.00   0.00   0.01     0.00   0.00   0.16     0.00   0.00  -0.05
     9   6     0.00   0.00   0.01     0.00   0.00   0.01     0.00   0.00   0.04
    10   6     0.00   0.00  -0.03     0.00   0.00   0.06     0.00   0.00   0.02
    11   6     0.00   0.00   0.07     0.00   0.00  -0.07     0.00   0.00   0.27
    12   1     0.00   0.00  -0.02     0.00   0.00  -0.40     0.00   0.00  -0.13
    13   1     0.00   0.00  -0.01     0.00   0.00   0.23     0.00   0.00  -0.19
    14   1     0.00   0.00  -0.01     0.00   0.00  -0.36     0.00   0.00  -0.04
    15   1     0.00   0.00   0.00     0.00   0.00  -0.32     0.00   0.00   0.03
    16   1     0.00   0.00   0.01     0.00   0.00   0.33     0.00   0.00  -0.03
    17   1     0.25   0.42   0.39    -0.02   0.14  -0.03     0.03  -0.32   0.16
    18   1    -0.25  -0.42   0.39     0.02  -0.14  -0.03    -0.03   0.32   0.17
    19   1     0.00   0.00  -0.46     0.00   0.00  -0.25     0.00   0.00   0.66
    20   1     0.00   0.00   0.02     0.00   0.00   0.00     0.00   0.00   0.26
                      4                      5                      6
                      A                      A                      A
 Frequencies --    158.5502               194.0208               318.3047
 Red. masses --      4.9352                 4.7367                 8.0755
 Frc consts  --      0.0731                 0.1051                 0.4821
 IR Inten    --      9.7959                 0.0606                 0.0309
  Atom  AN      X      Y      Z        X      Y      Z        X      Y      Z
     1   8     0.07   0.20   0.00     0.00   0.00   0.24    -0.16   0.24   0.00
     2   8    -0.26  -0.02   0.00     0.00   0.00   0.00     0.38   0.14   0.00
     3   7     0.03  -0.14   0.00     0.00   0.00   0.33     0.07   0.09   0.00
     4   6     0.02  -0.17   0.00     0.00   0.00   0.06    -0.04  -0.16   0.00
     5   6     0.10  -0.14   0.00     0.00   0.00  -0.10    -0.09  -0.20   0.00
     6   6    -0.05  -0.11   0.00     0.00   0.00  -0.12    -0.13  -0.14   0.00
     7   6     0.13  -0.03   0.00     0.00   0.00  -0.20    -0.08  -0.16   0.00
     8   6    -0.05   0.00   0.00     0.00   0.00  -0.19    -0.18  -0.09   0.00
     9   6     0.05   0.04   0.00     0.00   0.00  -0.09    -0.18  -0.07   0.00
    10   6    -0.08   0.00   0.00     0.00   0.00   0.10     0.15   0.12   0.00
    11   6     0.04   0.26   0.00     0.00   0.00  -0.13     0.16   0.08   0.00
    12   1     0.16  -0.19   0.00     0.00   0.00  -0.09    -0.09  -0.19   0.00
    13   1    -0.13  -0.14   0.00     0.00   0.00  -0.13    -0.21  -0.17   0.00
    14   1     0.11  -0.12   0.00     0.00   0.00   0.48     0.20   0.12   0.00
    15   1     0.21   0.00   0.00     0.00   0.00  -0.24    -0.02  -0.13   0.00
    16   1    -0.11   0.06   0.00     0.00   0.00  -0.23    -0.17  -0.11   0.00
    17   1    -0.03   0.37   0.00    -0.11   0.17  -0.13     0.15   0.10   0.00
    18   1    -0.03   0.37   0.00     0.11  -0.17  -0.13     0.15   0.10   0.00
    19   1     0.25   0.25   0.00     0.00   0.00  -0.34     0.20   0.08   0.00
    20   1     0.19   0.23   0.00     0.00   0.00   0.32     0.10   0.32   0.00
                      7                      8                      9
                      A                      A                      A
 Frequencies --    331.8255               357.5498               387.0673
 Red. masses --      3.9873                 1.0903                 5.0136
 Frc consts  --      0.2587                 0.0821                 0.4426
 IR Inten    --      1.1675               166.8087                 3.1036
  Atom  AN      X      Y      Z        X      Y      Z        X      Y      Z
     1   8     0.14   0.10   0.00     0.00   0.00   0.07     0.00   0.00   0.16
     2   8     0.00   0.17   0.00     0.00   0.00   0.00     0.00   0.00   0.01
     3   7    -0.05   0.11   0.00     0.00   0.00   0.00     0.00   0.00  -0.18
     4   6    -0.03  -0.05   0.00     0.00   0.00  -0.01     0.00   0.00   0.23
     5   6     0.04  -0.05   0.00     0.00   0.00   0.00     0.00   0.00   0.19
     6   6     0.04  -0.10   0.00     0.00   0.00  -0.01     0.00   0.00   0.23
     7   6     0.08  -0.06   0.00     0.00   0.00   0.01     0.00   0.00  -0.15
     8   6     0.04  -0.10   0.00     0.00   0.00  -0.01     0.00   0.00  -0.21
     9   6     0.10  -0.07   0.00     0.00   0.00   0.00     0.00   0.00  -0.26
    10   6    -0.10   0.15   0.00     0.00   0.00   0.00     0.00   0.00  -0.12
    11   6    -0.26  -0.14   0.00     0.00   0.00   0.00     0.00   0.00   0.04
    12   1     0.08  -0.08   0.00     0.00   0.00   0.01     0.00   0.00   0.23
    13   1     0.07  -0.09   0.00     0.00   0.00  -0.04     0.00   0.00   0.38
    14   1     0.05   0.14   0.00     0.00   0.00   0.02     0.00   0.00  -0.49
    15   1     0.05  -0.07   0.00     0.00   0.00   0.07     0.00   0.00  -0.19
    16   1     0.01  -0.07   0.00     0.00   0.00  -0.04     0.00   0.00  -0.25
    17   1    -0.16  -0.31   0.00     0.00   0.00   0.00     0.14  -0.11   0.09
    18   1    -0.16  -0.31   0.00     0.00   0.00   0.00    -0.14   0.11   0.09
    19   1    -0.57  -0.12   0.00     0.00   0.00   0.00     0.00   0.00   0.18
    20   1     0.28   0.14   0.00     0.00   0.00  -0.99     0.00   0.00   0.11
                     10                     11                     12
                      A                      A                      A
 Frequencies --    428.0109               436.3657               511.3615
 Red. masses --      3.9736                 3.0851                 4.4617
 Frc consts  --      0.4289                 0.3461                 0.6874
 IR Inten    --     12.3757                 0.0156                22.4016
  Atom  AN      X      Y      Z        X      Y      Z        X      Y      Z
     1   8     0.02   0.23   0.00     0.00   0.00   0.01     0.20  -0.02   0.00
     2   8    -0.10  -0.09   0.00     0.00   0.00   0.01     0.23  -0.08   0.00
     3   7     0.00   0.00   0.00     0.00   0.00  -0.01    -0.20   0.01   0.00
     4   6     0.03   0.15   0.00     0.00   0.00   0.02    -0.17   0.05   0.00
     5   6    -0.08   0.12   0.00     0.00   0.00   0.23    -0.03   0.09   0.00
     6   6     0.11   0.10   0.00     0.00   0.00  -0.20    -0.06  -0.05   0.00
     7   6    -0.10  -0.15   0.00     0.00   0.00  -0.22     0.00   0.05   0.00
     8   6     0.06  -0.16   0.00     0.00   0.00   0.21    -0.03  -0.09   0.00
     9   6    -0.04  -0.18   0.00     0.00   0.00  -0.01     0.13  -0.05   0.00
    10   6     0.03  -0.07   0.00     0.00   0.00  -0.03    -0.11  -0.11   0.00
    11   6     0.06  -0.02   0.00     0.00   0.00   0.01    -0.04   0.16   0.00
    12   1    -0.22   0.23   0.00     0.00   0.00   0.44     0.05   0.03   0.00
    13   1     0.27   0.15   0.00     0.00   0.00  -0.46     0.06   0.00   0.00
    14   1    -0.11  -0.02   0.00     0.00   0.00  -0.01    -0.25  -0.01   0.00
    15   1    -0.27  -0.21   0.00     0.00   0.00  -0.48    -0.14   0.00   0.00
    16   1     0.22  -0.30   0.00     0.00   0.00   0.41    -0.11  -0.02   0.00
    17   1     0.05   0.00   0.00     0.03  -0.02   0.01    -0.18   0.42   0.01
    18   1     0.05   0.00   0.00    -0.03   0.02   0.01    -0.18   0.42  -0.01
    19   1     0.10  -0.02   0.00     0.00   0.00   0.03     0.39   0.14   0.00
    20   1     0.40   0.34   0.00     0.00   0.00  -0.05     0.20  -0.03   0.00
                     13                     14                     15
                      A                      A                      A
 Frequencies --    536.5288               614.5815               634.5645
 Red. masses --      2.3799                 2.7484                 5.3052
 Frc consts  --      0.4036                 0.6116                 1.2586
 IR Inten    --     24.4616                 1.1524                 0.5470
  Atom  AN      X      Y      Z        X      Y      Z        X      Y      Z
     1   8     0.00   0.00  -0.04     0.00   0.00   0.00     0.22  -0.02   0.00
     2   8     0.00   0.00   0.03     0.00   0.00  -0.13    -0.17   0.03   0.00
     3   7     0.00   0.00  -0.01     0.00   0.00  -0.11    -0.01   0.12   0.00
     4   6     0.00   0.00   0.22     0.00   0.00   0.04    -0.15  -0.03   0.00
     5   6     0.00   0.00  -0.06     0.00   0.00   0.04    -0.18   0.00   0.00
     6   6     0.00   0.00  -0.03     0.00   0.00   0.02    -0.10  -0.15   0.00
     7   6     0.00   0.00  -0.04     0.00   0.00  -0.03    -0.12   0.15   0.00
     8   6     0.00   0.00  -0.05     0.00   0.00  -0.02    -0.07  -0.03   0.00
     9   6     0.00   0.00   0.24     0.00   0.00   0.05     0.11   0.03   0.00
    10   6     0.00   0.00  -0.08     0.00   0.00   0.34     0.13   0.05   0.00
    11   6     0.00   0.00   0.00     0.00   0.00   0.02     0.30  -0.13   0.00
    12   1     0.00   0.00  -0.41     0.00   0.00  -0.08    -0.09  -0.07   0.00
    13   1     0.00   0.00  -0.44     0.00   0.00  -0.06    -0.10  -0.15   0.00
    14   1     0.00   0.00  -0.21     0.00   0.00  -0.50    -0.03   0.11   0.00
    15   1     0.00   0.00  -0.44     0.00   0.00  -0.19    -0.21   0.12   0.00
    16   1     0.00   0.00  -0.47     0.00   0.00  -0.12    -0.26   0.13   0.00
    17   1     0.11  -0.06   0.05    -0.41   0.21  -0.17     0.36  -0.26  -0.01
    18   1    -0.11   0.06   0.05     0.41  -0.21  -0.17     0.36  -0.26   0.01
    19   1     0.00   0.00   0.09     0.00   0.00  -0.24     0.09  -0.13   0.00
    20   1     0.00   0.00  -0.08     0.00   0.00  -0.02     0.15  -0.04   0.00
                     16                     17                     18
                      A                      A                      A
 Frequencies --    653.6152               672.8531               737.7991
 Red. masses --      1.2760                 6.7519                 3.7417
 Frc consts  --      0.3212                 1.8010                 1.2000
 IR Inten    --     80.8611                 0.0028                 0.6177
  Atom  AN      X      Y      Z        X      Y      Z        X      Y      Z
     1   8     0.00   0.00   0.00    -0.04   0.09   0.00     0.00   0.00   0.02
     2   8     0.00   0.00   0.01     0.06  -0.06   0.00     0.00   0.00  -0.01
     3   7     0.00   0.00  -0.13    -0.01  -0.01   0.00     0.00   0.00  -0.07
     4   6     0.00   0.00   0.01     0.01  -0.10   0.00     0.00   0.00   0.29
     5   6     0.00   0.00   0.03    -0.28  -0.17   0.00     0.00   0.00  -0.15
     6   6     0.00   0.00   0.04     0.29  -0.22   0.00     0.00   0.00  -0.13
     7   6     0.00   0.00  -0.02    -0.22   0.19   0.00     0.00   0.00   0.14
     8   6     0.00   0.00  -0.02     0.34   0.15   0.00     0.00   0.00   0.15
     9   6     0.00   0.00   0.02    -0.01   0.10   0.00     0.00   0.00  -0.28
    10   6     0.00   0.00   0.02    -0.05  -0.05   0.00     0.00   0.00   0.03
    11   6     0.00   0.00   0.01    -0.09   0.04   0.00     0.00   0.00   0.01
    12   1     0.00   0.00  -0.01    -0.23  -0.21   0.00     0.00   0.00  -0.42
    13   1     0.00   0.00  -0.11     0.19  -0.25   0.00     0.00   0.00  -0.54
    14   1     0.00   0.00   0.96     0.01  -0.01   0.00     0.00   0.00   0.09
    15   1     0.00   0.00  -0.09    -0.09   0.24   0.00     0.00   0.00   0.39
    16   1     0.00   0.00  -0.14     0.33   0.16   0.00     0.00   0.00   0.33
    17   1    -0.08   0.03  -0.04    -0.14   0.13   0.01    -0.05   0.02  -0.02
    18   1     0.08  -0.03  -0.04    -0.14   0.13  -0.01     0.05  -0.02  -0.02
    19   1     0.00   0.00  -0.07     0.05   0.03   0.00     0.00   0.00  -0.02
    20   1     0.00   0.00   0.01     0.05   0.12   0.00     0.00   0.00   0.07
                     19                     20                     21
                      A                      A                      A
 Frequencies --    809.1449               845.8022               862.6288
 Red. masses --      5.4497                 1.2712                 1.6760
 Frc consts  --      2.1022                 0.5358                 0.7348
 IR Inten    --     25.3513                 0.7961                96.2153
  Atom  AN      X      Y      Z        X      Y      Z        X      Y      Z
     1   8     0.27  -0.03   0.00     0.00   0.00   0.00     0.00   0.00   0.02
     2   8     0.06   0.03   0.00     0.00   0.00   0.00     0.00   0.00   0.00
     3   7     0.20  -0.22   0.00     0.00   0.00   0.01     0.00   0.00   0.04
     4   6     0.13  -0.02   0.00     0.00   0.00  -0.03     0.00   0.00  -0.12
     5   6    -0.19  -0.07   0.00     0.00   0.00  -0.04     0.00   0.00   0.05
     6   6    -0.11   0.21   0.00     0.00   0.00   0.09     0.00   0.00   0.08
     7   6    -0.18  -0.05   0.00     0.00   0.00  -0.09     0.00   0.00   0.12
     8   6    -0.09   0.10   0.00     0.00   0.00   0.07     0.00   0.00   0.07
     9   6    -0.01  -0.01   0.00     0.00   0.00   0.00     0.00   0.00  -0.12
    10   6     0.04   0.03   0.00     0.00   0.00   0.00     0.00   0.00  -0.01
    11   6    -0.15   0.07   0.00     0.00   0.00   0.00     0.00   0.00   0.00
    12   1    -0.41   0.11   0.00     0.00   0.00   0.34     0.00   0.00  -0.30
    13   1    -0.29   0.14   0.00     0.00   0.00  -0.51     0.00   0.00  -0.41
    14   1     0.24  -0.21   0.00     0.00   0.00  -0.08     0.00   0.00  -0.06
    15   1    -0.25  -0.08   0.00     0.00   0.00   0.56     0.00   0.00  -0.69
    16   1    -0.08   0.10   0.00     0.00   0.00  -0.52     0.00   0.00  -0.44
    17   1    -0.10  -0.04   0.00     0.00   0.00   0.00     0.02  -0.01   0.01
    18   1    -0.10  -0.04   0.00     0.00   0.00   0.00    -0.02   0.01   0.01
    19   1    -0.32   0.08   0.00     0.00   0.00   0.00     0.00   0.00   0.01
    20   1     0.17  -0.07   0.00     0.00   0.00   0.05     0.00   0.00   0.01
                     22                     23                     24
                      A                      A                      A
 Frequencies --    874.5883               968.7787               971.2930
 Red. masses --      5.6276                 6.6089                 1.3471
 Frc consts  --      2.5362                 3.6545                 0.7488
 IR Inten    --      4.1535                 1.7347                 0.2467
  Atom  AN      X      Y      Z        X      Y      Z        X      Y      Z
     1   8    -0.12   0.02   0.00     0.02   0.00   0.00     0.00   0.00   0.01
     2   8     0.03   0.05   0.00    -0.06  -0.29   0.00     0.00   0.00   0.00
     3   7     0.18  -0.23   0.00     0.19   0.38   0.00     0.00   0.00  -0.01
     4   6     0.00  -0.01   0.00     0.09   0.04   0.00     0.00   0.00   0.03
     5   6     0.06   0.29   0.00    -0.01  -0.03   0.00     0.00   0.00   0.00
     6   6     0.01  -0.21   0.00    -0.03  -0.10   0.00     0.00   0.00  -0.12
     7   6    -0.07   0.28   0.00     0.01   0.02   0.00     0.00   0.00   0.00
     8   6    -0.08  -0.24   0.00    -0.13  -0.06   0.00     0.00   0.00   0.12
     9   6     0.05  -0.02   0.00     0.00   0.03   0.00     0.00   0.00  -0.02
    10   6     0.05   0.03   0.00     0.23  -0.10   0.00     0.00   0.00   0.00
    11   6    -0.09   0.06   0.00    -0.24   0.10   0.00     0.00   0.00   0.00
    12   1     0.17   0.22   0.00    -0.01  -0.03   0.00     0.00   0.00   0.04
    13   1     0.17  -0.17   0.00    -0.09  -0.12   0.00     0.00   0.00   0.68
    14   1     0.23  -0.22   0.00     0.13   0.37   0.00     0.00   0.00   0.04
    15   1    -0.32   0.21   0.00     0.06   0.04   0.00     0.00   0.00   0.00
    16   1    -0.21  -0.14   0.00    -0.31   0.08   0.00     0.00   0.00  -0.71
    17   1    -0.01  -0.10  -0.01    -0.27   0.16   0.01    -0.01   0.00   0.00
    18   1    -0.01  -0.10   0.01    -0.27   0.16  -0.01     0.01   0.00   0.00
    19   1    -0.36   0.08   0.00    -0.22   0.11   0.00     0.00   0.00   0.00
    20   1    -0.03   0.05   0.00    -0.09  -0.04   0.00     0.00   0.00   0.01
                     25                     26                     27
                      A                      A                      A
 Frequencies --   1008.7793              1045.8699              1050.8369
 Red. masses --      1.3195                 2.0186                 1.9350
 Frc consts  --      0.7912                 1.3010                 1.2589
 IR Inten    --      5.1470                11.1617                11.6523
  Atom  AN      X      Y      Z        X      Y      Z        X      Y      Z
     1   8     0.00   0.00   0.00     0.00   0.00   0.00     0.01   0.00   0.00
     2   8     0.00   0.00   0.00    -0.02   0.05   0.00    -0.01   0.04   0.00
     3   7     0.00   0.00  -0.01     0.06   0.02   0.00     0.05   0.01   0.00
     4   6     0.00   0.00   0.04     0.05  -0.02   0.00     0.04  -0.01   0.00
     5   6     0.00   0.00  -0.14    -0.03  -0.09   0.00     0.03   0.13   0.00
     6   6     0.00   0.00   0.01     0.00   0.10   0.00     0.00  -0.13   0.00
     7   6     0.00   0.00   0.08    -0.01   0.14   0.00    -0.02  -0.11   0.00
     8   6     0.00   0.00  -0.01    -0.06  -0.13   0.00     0.01   0.11   0.00
     9   6     0.00   0.00   0.00     0.01   0.00   0.00    -0.02   0.00   0.00
    10   6     0.00   0.00   0.00    -0.06   0.00   0.00    -0.05   0.00   0.00
    11   6     0.00   0.00   0.00    -0.02  -0.14   0.00    -0.02  -0.12   0.00
    12   1     0.00   0.00   0.88     0.07  -0.17   0.00    -0.14   0.28   0.00
    13   1     0.00   0.00  -0.02     0.15   0.15   0.00    -0.21  -0.21   0.00
    14   1     0.00   0.00   0.00     0.18   0.05   0.00     0.17   0.04   0.00
    15   1     0.00   0.00  -0.45     0.14   0.20   0.00    -0.26  -0.20   0.00
    16   1     0.00   0.00   0.03     0.08  -0.25   0.00    -0.20   0.28   0.00
    17   1     0.00   0.00   0.00    -0.18   0.28   0.05    -0.15   0.24   0.05
    18   1     0.00   0.00   0.00    -0.18   0.28  -0.05    -0.15   0.24  -0.05
    19   1     0.00   0.00   0.00     0.64  -0.16   0.00     0.54  -0.13   0.00
    20   1     0.00   0.00  -0.01    -0.03  -0.01   0.00     0.01   0.00   0.00
                     28                     29                     30
                      A                      A                      A
 Frequencies --   1098.8576              1152.2058              1190.4138
 Red. masses --      1.6256                 1.4335                 1.3953
 Frc consts  --      1.1565                 1.1213                 1.1650
 IR Inten    --     18.9049                84.0045               222.9225
  Atom  AN      X      Y      Z        X      Y      Z        X      Y      Z
     1   8     0.00   0.00   0.00     0.03   0.02   0.00     0.09   0.05   0.00
     2   8     0.00   0.00  -0.03     0.01   0.01   0.00     0.00   0.00   0.00
     3   7     0.00   0.00  -0.03    -0.02  -0.03   0.00     0.00   0.01   0.00
     4   6     0.00   0.00   0.00     0.03   0.06   0.00     0.00   0.00   0.00
     5   6     0.00   0.00   0.00    -0.06  -0.03   0.00     0.05   0.02   0.00
     6   6     0.00   0.00   0.00     0.07  -0.05   0.00    -0.01  -0.03   0.00
     7   6     0.00   0.00   0.00     0.04  -0.05   0.00    -0.04  -0.02   0.00
     8   6     0.00   0.00   0.00    -0.06  -0.06   0.00     0.02  -0.04   0.00
     9   6     0.00   0.00   0.00     0.00   0.08   0.00    -0.09   0.07   0.00
    10   6     0.00   0.00   0.17    -0.02   0.00   0.00    -0.01   0.00   0.00
    11   6     0.00   0.00  -0.16     0.01   0.00   0.00     0.01   0.00   0.00
    12   1     0.00   0.00  -0.01    -0.41   0.25   0.00     0.14  -0.05   0.00
    13   1     0.00   0.00   0.00     0.45   0.08   0.00    -0.12  -0.07   0.00
    14   1     0.00   0.00   0.07    -0.07  -0.05   0.00     0.01   0.01   0.00
    15   1     0.00   0.00   0.00     0.35   0.05   0.00    -0.24  -0.09   0.00
    16   1     0.00   0.00   0.00    -0.37   0.19   0.00     0.40  -0.36   0.00
    17   1     0.60  -0.16   0.18     0.02  -0.02   0.00     0.01  -0.02   0.00
    18   1    -0.60   0.16   0.18     0.02  -0.02   0.00     0.01  -0.02   0.00
    19   1     0.00   0.00   0.33    -0.01   0.00   0.00    -0.02   0.00   0.00
    20   1     0.00   0.00   0.00    -0.44  -0.12   0.00    -0.73  -0.21   0.00
                     31                     32                     33
                      A                      A                      A
 Frequencies --   1228.2577              1264.1880              1291.5366
 Red. masses --      1.1218                 3.9217                 2.4128
 Frc consts  --      0.9971                 3.6928                 2.3713
 IR Inten    --      0.8097                 9.8287               116.8074
  Atom  AN      X      Y      Z        X      Y      Z        X      Y      Z
     1   8     0.00   0.01   0.00     0.00  -0.01   0.00    -0.10   0.03   0.00
     2   8     0.00   0.01   0.00     0.04  -0.07   0.00    -0.01   0.03   0.00
     3   7     0.01  -0.01   0.00    -0.07   0.10   0.00    -0.06  -0.02   0.00
     4   6    -0.03   0.00   0.00     0.30  -0.06   0.00     0.09   0.05   0.00
     5   6     0.03  -0.04   0.00     0.07  -0.03   0.00    -0.02  -0.09   0.00
     6   6     0.04   0.03   0.00     0.04   0.01   0.00    -0.07   0.03   0.00
     7   6    -0.04  -0.02   0.00    -0.08   0.09   0.00     0.01   0.00   0.00
     8   6    -0.02   0.02   0.00    -0.08  -0.04   0.00     0.06  -0.07   0.00
     9   6     0.02   0.00   0.00     0.00  -0.02   0.00     0.25   0.04   0.00
    10   6     0.01  -0.01   0.00    -0.31  -0.01   0.00     0.09   0.01   0.00
    11   6     0.00   0.00   0.00     0.12   0.05   0.00    -0.02  -0.02   0.00
    12   1     0.42  -0.35   0.00    -0.10   0.14   0.00    -0.24   0.08   0.00
    13   1     0.43   0.18   0.00    -0.26  -0.12   0.00    -0.46  -0.11   0.00
    14   1     0.03   0.00   0.00     0.21   0.18   0.00    -0.40  -0.10   0.00
    15   1    -0.48  -0.19   0.00    -0.40  -0.02   0.00    -0.48  -0.20   0.00
    16   1    -0.34   0.29   0.00    -0.30   0.13   0.00    -0.06   0.04   0.00
    17   1    -0.01   0.01   0.00     0.18  -0.28  -0.09    -0.04   0.09   0.03
    18   1    -0.01   0.01   0.00     0.18  -0.28   0.09    -0.04   0.09  -0.03
    19   1     0.00   0.00   0.00    -0.17   0.04   0.00     0.03  -0.01   0.00
    20   1    -0.13  -0.03   0.00     0.11   0.03   0.00    -0.34  -0.03   0.00
                     34                     35                     36
                      A                      A                      A
 Frequencies --   1314.2701              1378.4703              1395.2338
 Red. masses --      2.3153                 2.0166                 2.8015
 Frc consts  --      2.3563                 2.2577                 3.2132
 IR Inten    --     14.4880               123.9713                 2.8244
  Atom  AN      X      Y      Z        X      Y      Z        X      Y      Z
     1   8    -0.06   0.02   0.00    -0.01   0.02   0.00     0.02   0.04   0.00
     2   8     0.01  -0.07   0.00     0.01   0.00   0.00    -0.01   0.02   0.00
     3   7     0.09   0.03   0.00     0.11  -0.01   0.00    -0.04   0.00   0.00
     4   6    -0.14  -0.10   0.00    -0.06   0.18   0.00     0.03  -0.12   0.00
     5   6    -0.09   0.04   0.00    -0.04  -0.01   0.00    -0.15   0.11   0.00
     6   6    -0.03   0.07   0.00    -0.04  -0.01   0.00     0.18   0.08   0.00
     7   6     0.11  -0.02   0.00    -0.05  -0.06   0.00     0.12   0.05   0.00
     8   6     0.02   0.03   0.00     0.09  -0.06   0.00    -0.08   0.04   0.00
     9   6     0.15  -0.02   0.00     0.05   0.00   0.00    -0.02  -0.20   0.00
    10   6    -0.11   0.02   0.00    -0.12  -0.03   0.00     0.04  -0.01   0.00
    11   6     0.02   0.02   0.00     0.03   0.01   0.00     0.00   0.00   0.00
    12   1    -0.29   0.19   0.00     0.38  -0.36   0.00     0.25  -0.21   0.00
    13   1     0.16   0.15   0.00    -0.48  -0.16   0.00    -0.52  -0.18   0.00
    14   1     0.67   0.16   0.00     0.14   0.01   0.00    -0.19  -0.04   0.00
    15   1    -0.21  -0.15   0.00     0.45   0.11   0.00     0.13   0.05   0.00
    16   1     0.21  -0.11   0.00    -0.22   0.20   0.00    -0.26   0.19   0.00
    17   1     0.04  -0.11  -0.04     0.01  -0.10  -0.04    -0.02   0.05   0.01
    18   1     0.04  -0.11   0.04     0.01  -0.10   0.04    -0.02   0.05  -0.01
    19   1    -0.01   0.01   0.00     0.00   0.00   0.00    -0.04   0.00   0.00
    20   1    -0.30  -0.04   0.00    -0.17  -0.03   0.00    -0.50  -0.13   0.00
                     37                     38                     39
                      A                      A                      A
 Frequencies --   1452.4015              1471.1170              1514.1439
 Red. masses --      1.2299                 2.4907                 1.0464
 Frc consts  --      1.5287                 3.1759                 1.4135
 IR Inten    --     37.4788                28.2561                 9.0128
  Atom  AN      X      Y      Z        X      Y      Z        X      Y      Z
     1   8     0.00   0.00   0.00    -0.02  -0.04   0.00     0.00   0.00   0.00
     2   8     0.00   0.01   0.00     0.01   0.04   0.00     0.00   0.00   0.00
     3   7     0.02   0.00   0.00     0.08   0.00   0.00     0.00   0.00   0.00
     4   6     0.00   0.01   0.00     0.03   0.11   0.00     0.00   0.00   0.00
     5   6    -0.01   0.00   0.00    -0.14  -0.01   0.00     0.00   0.00   0.00
     6   6     0.01  -0.01   0.00     0.09  -0.08   0.00     0.00   0.00   0.00
     7   6     0.02   0.00   0.00     0.14  -0.03   0.00     0.00   0.00   0.00
     8   6    -0.02   0.01   0.00    -0.17   0.06   0.00     0.00   0.00   0.00
     9   6     0.00   0.01   0.00     0.02   0.10   0.00     0.00   0.00   0.00
    10   6    -0.02  -0.01   0.00    -0.08  -0.05   0.00     0.00   0.00  -0.02
    11   6     0.13  -0.04   0.00    -0.02   0.02   0.00     0.00   0.00  -0.06
    12   1     0.00  -0.01   0.00     0.16  -0.27   0.00     0.00   0.00   0.00
    13   1     0.02  -0.01   0.00     0.00  -0.14   0.00     0.00   0.00   0.00
    14   1    -0.07  -0.02   0.00    -0.36  -0.10   0.00     0.00   0.00   0.02
    15   1    -0.05  -0.03   0.00    -0.33  -0.22   0.00     0.00   0.00   0.00
    16   1     0.05  -0.05   0.00     0.35  -0.39   0.00     0.00   0.00   0.00
    17   1    -0.50   0.20  -0.28     0.13  -0.12   0.04    -0.14   0.47   0.06
    18   1    -0.49   0.20   0.28     0.13  -0.12  -0.04     0.14  -0.47   0.06
    19   1    -0.49   0.00   0.00     0.14   0.00   0.00     0.00   0.00   0.72
    20   1     0.04   0.01   0.00     0.30   0.07   0.00     0.00   0.00   0.00
                     40                     41                     42
                      A                      A                      A
 Frequencies --   1531.9527              1568.6047              1587.4899
 Red. masses --      1.0901                 2.6011                 2.0563
 Frc consts  --      1.5073                 3.7708                 3.0532
 IR Inten    --     15.7450               387.6295               139.1041
  Atom  AN      X      Y      Z        X      Y      Z        X      Y      Z
     1   8     0.00   0.00   0.00     0.03  -0.01   0.00     0.00  -0.03   0.00
     2   8     0.01  -0.02   0.00     0.00   0.01   0.00     0.00  -0.04   0.00
     3   7     0.01   0.00   0.00     0.11   0.01   0.00    -0.13  -0.06   0.00
     4   6     0.00   0.01   0.00    -0.17   0.05   0.00    -0.02   0.06   0.00
     5   6    -0.01   0.00   0.00     0.09  -0.13   0.00    -0.03  -0.01   0.00
     6   6     0.00   0.00   0.00     0.07   0.05   0.00     0.12   0.03   0.00
     7   6     0.00  -0.01   0.00     0.12   0.10   0.00     0.04  -0.03   0.00
     8   6    -0.01   0.00   0.00     0.07  -0.07   0.00    -0.02  -0.09   0.00
     9   6     0.01   0.01   0.00    -0.16  -0.02   0.00    -0.05   0.14   0.00
    10   6    -0.04   0.02   0.00    -0.05  -0.03   0.00     0.09   0.08   0.00
    11   6     0.01  -0.06   0.00     0.00   0.00   0.00     0.00  -0.01   0.00
    12   1     0.03  -0.03   0.00    -0.45   0.29   0.00     0.04  -0.08   0.00
    13   1     0.00  -0.01   0.00    -0.34  -0.09   0.00    -0.37  -0.15   0.00
    14   1     0.04   0.01   0.00    -0.29  -0.07   0.00     0.78   0.14   0.00
    15   1     0.01  -0.01   0.00    -0.46  -0.09   0.00    -0.15  -0.10   0.00
    16   1     0.01  -0.02   0.00    -0.28   0.21   0.00    -0.13  -0.02   0.00
    17   1     0.28   0.43   0.34     0.05   0.00   0.03    -0.07   0.03  -0.03
    18   1     0.28   0.43  -0.34     0.05   0.00  -0.03    -0.07   0.03   0.03
    19   1    -0.48  -0.02   0.00    -0.02   0.00   0.00     0.01   0.00   0.00
    20   1     0.01   0.00   0.00     0.08   0.01   0.00     0.23   0.05   0.00
                     43                     44                     45
                      A                      A                      A
 Frequencies --   1660.3417              1680.6947              1705.8115
 Red. masses --      5.4477                 6.0466                 4.4602
 Frc consts  --      8.8482                10.0632                 7.6466
 IR Inten    --     24.2111                11.6653               131.4903
  Atom  AN      X      Y      Z        X      Y      Z        X      Y      Z
     1   8     0.02   0.03   0.00     0.02  -0.02   0.00     0.00  -0.01   0.00
     2   8     0.00  -0.06   0.00     0.00   0.03   0.00     0.03  -0.25   0.00
     3   7    -0.09  -0.08   0.00    -0.01   0.03   0.00     0.06  -0.04   0.00
     4   6     0.12   0.30   0.00     0.17  -0.12   0.00    -0.01  -0.04   0.00
     5   6    -0.04  -0.13   0.00    -0.26   0.16   0.00    -0.02   0.04   0.00
     6   6    -0.18  -0.16   0.00    -0.27   0.02   0.00     0.01   0.01   0.00
     7   6     0.18   0.16   0.00     0.25  -0.01   0.00     0.00  -0.02   0.00
     8   6     0.02   0.16   0.00     0.29  -0.19   0.00     0.01  -0.02   0.00
     9   6    -0.08  -0.30   0.00    -0.20   0.14   0.00    -0.01   0.04   0.00
    10   6     0.03   0.13   0.00    -0.01  -0.06   0.00    -0.07   0.46   0.00
    11   6     0.00  -0.01   0.00     0.00   0.01   0.00     0.01  -0.04   0.00
    12   1    -0.06  -0.15   0.00     0.24  -0.25   0.00     0.13  -0.08   0.00
    13   1     0.31   0.01   0.00     0.24   0.21   0.00     0.00   0.01   0.00
    14   1     0.53   0.07   0.00    -0.12   0.00   0.00    -0.73  -0.21   0.00
    15   1    -0.26   0.01   0.00    -0.26  -0.19   0.00     0.04  -0.01   0.00
    16   1     0.17   0.06   0.00    -0.28   0.29   0.00    -0.02   0.00   0.00
    17   1    -0.05   0.02  -0.02     0.02   0.00   0.01    -0.08  -0.03  -0.06
    18   1    -0.05   0.02   0.02     0.02   0.00  -0.01    -0.08  -0.03   0.06
    19   1     0.03  -0.01   0.00    -0.03   0.01   0.00     0.27  -0.04   0.00
    20   1    -0.28  -0.08   0.00     0.21   0.04   0.00     0.04   0.01   0.00
                     46                     47                     48
                      A                      A                      A
 Frequencies --   3061.8300              3143.3241              3144.9874
 Red. masses --      1.0353                 1.0984                 1.1015
 Frc consts  --      5.7182                 6.3941                 6.4188
 IR Inten    --     10.9797                 5.9102                19.3299
  Atom  AN      X      Y      Z        X      Y      Z        X      Y      Z
     1   8     0.00   0.00   0.00     0.00   0.00   0.00     0.00   0.00   0.00
     2   8     0.00   0.00   0.00     0.00   0.00   0.00     0.00   0.00   0.00
     3   7     0.00   0.00   0.00     0.00   0.00   0.00     0.00   0.00   0.00
     4   6     0.00   0.00   0.00     0.00   0.00   0.00     0.00   0.00   0.00
     5   6     0.00   0.00   0.00     0.00   0.00   0.00     0.00   0.00   0.00
     6   6     0.00   0.00   0.00     0.00   0.00   0.00     0.00   0.00   0.00
     7   6     0.00   0.00   0.00     0.00   0.00   0.00     0.00   0.00   0.00
     8   6     0.00   0.00   0.00     0.00   0.00   0.00     0.00   0.00   0.00
     9   6     0.00   0.00   0.00     0.00   0.00   0.00     0.00   0.00   0.00
    10   6     0.00   0.00   0.00     0.00   0.00   0.00     0.00   0.00   0.00
    11   6    -0.04   0.03   0.00     0.00   0.00   0.09     0.04   0.08   0.00
    12   1     0.00   0.00   0.00     0.00   0.00   0.00     0.00   0.00   0.00
    13   1     0.00   0.00   0.00     0.00   0.00   0.00     0.00   0.00   0.00
    14   1     0.00   0.00   0.00     0.00   0.00   0.00    -0.01   0.01   0.00
    15   1     0.00   0.00   0.00     0.00   0.00   0.00     0.00   0.00   0.00
    16   1     0.00   0.00   0.00     0.00   0.00   0.00     0.00   0.00   0.00
    17   1     0.27   0.17  -0.44     0.37   0.22  -0.56    -0.22  -0.12   0.37
    18   1     0.27   0.17   0.44    -0.36  -0.22  -0.55    -0.23  -0.12  -0.38
    19   1    -0.04  -0.64   0.00     0.00   0.01   0.02    -0.03  -0.76   0.00
    20   1     0.00   0.00   0.00     0.00   0.00   0.00     0.00   0.00   0.00
                     49                     50                     51
                      A                      A                      A
 Frequencies --   3183.8209              3188.8653              3238.9760
 Red. masses --      1.0896                 1.0906                 1.0936
 Frc consts  --      6.5078                 6.5344                 6.7596
 IR Inten    --     27.4373                11.6709                 5.9240
  Atom  AN      X      Y      Z        X      Y      Z        X      Y      Z
     1   8     0.00   0.00   0.00     0.00   0.00   0.00     0.00   0.00   0.00
     2   8     0.00   0.00   0.00     0.00   0.00   0.00     0.00   0.00   0.00
     3   7     0.00   0.00   0.00     0.00   0.00   0.00     0.00   0.00   0.00
     4   6     0.00   0.00   0.00     0.00   0.00   0.00     0.00   0.00   0.00
     5   6     0.00   0.00   0.00     0.00   0.00   0.00     0.00   0.00   0.00
     6   6     0.03  -0.08   0.00    -0.01   0.02   0.00     0.01  -0.01   0.00
     7   6     0.01  -0.02   0.00     0.03  -0.08   0.00     0.00   0.00   0.00
     8   6     0.01   0.01   0.00     0.00   0.00   0.00    -0.06  -0.07   0.00
     9   6     0.00   0.00   0.00     0.00   0.00   0.00     0.00   0.00   0.00
    10   6     0.00   0.00   0.00     0.00   0.00   0.00     0.00   0.00   0.00
    11   6     0.00   0.00   0.00     0.00   0.00   0.00     0.00   0.00   0.00
    12   1    -0.01  -0.02   0.00    -0.04  -0.06   0.00     0.01   0.02   0.00
    13   1    -0.33   0.90   0.00     0.07  -0.20   0.00    -0.06   0.16   0.00
    14   1    -0.01   0.00   0.00     0.00   0.00   0.00     0.00   0.00   0.00
    15   1    -0.08   0.21   0.00    -0.33   0.91   0.00     0.00  -0.01   0.00
    16   1    -0.10  -0.13   0.00     0.04   0.04   0.00     0.63   0.75   0.00
    17   1     0.00   0.00   0.00     0.00   0.00   0.00     0.00   0.00   0.00
    18   1     0.00   0.00   0.00     0.00   0.00   0.00     0.00   0.00   0.00
    19   1     0.00   0.00   0.00     0.00   0.00   0.00     0.00   0.00   0.00
    20   1     0.00   0.00   0.00    -0.01   0.00   0.00     0.00   0.00   0.00
                     52                     53                     54
                      A                      A                      A
 Frequencies --   3280.9683              3626.2153              3669.6080
 Red. masses --      1.0928                 1.0764                 1.0659
 Frc consts  --      6.9307                 8.3390                 8.4571
 IR Inten    --      5.8294                14.6105                34.5756
  Atom  AN      X      Y      Z        X      Y      Z        X      Y      Z
     1   8     0.00   0.00   0.00     0.00   0.00   0.00    -0.02   0.06   0.00
     2   8     0.00   0.00   0.00     0.00   0.00   0.00     0.00   0.00   0.00
     3   7     0.00   0.00   0.00     0.02  -0.07   0.00     0.00   0.00   0.00
     4   6     0.00   0.00   0.00     0.00   0.00   0.00     0.00   0.00   0.00
     5   6    -0.05  -0.07   0.00     0.00   0.00   0.00     0.00   0.00   0.00
     6   6     0.00   0.00   0.00     0.00   0.00   0.00     0.00   0.00   0.00
     7   6     0.01  -0.01   0.00     0.00   0.00   0.00     0.00   0.00   0.00
     8   6     0.00   0.00   0.00     0.00   0.00   0.00     0.00   0.00   0.00
     9   6     0.00   0.00   0.00     0.00   0.00   0.00     0.00   0.00   0.00
    10   6     0.00   0.00   0.00     0.00   0.00   0.00     0.00   0.00   0.00
    11   6     0.00   0.00   0.00     0.00   0.00   0.00     0.00   0.00   0.00
    12   1     0.62   0.77   0.00     0.00   0.00   0.00     0.00   0.00   0.00
    13   1     0.00   0.00   0.00     0.00   0.00   0.00     0.00   0.00   0.00
    14   1     0.00   0.00   0.00    -0.22   0.97   0.00     0.00   0.00   0.00
    15   1    -0.03   0.07   0.00     0.00   0.00   0.00     0.00   0.00   0.00
    16   1    -0.01  -0.01   0.00     0.00   0.00   0.00     0.00   0.00   0.00
    17   1     0.00   0.00   0.00     0.00   0.00   0.00     0.00   0.00   0.00
    18   1     0.00   0.00   0.00     0.00   0.00   0.00     0.00   0.00   0.00
    19   1     0.00   0.00   0.00     0.00   0.01   0.00     0.00   0.00   0.00
    20   1     0.00   0.00   0.00     0.00   0.00   0.00     0.29  -0.95   0.00

 -------------------
 - Thermochemistry -
 -------------------
 Temperature   298.150 Kelvin.  Pressure   1.00000 Atm.
 Atom     1 has atomic number  8 and mass  15.99491
 Atom     2 has atomic number  8 and mass  15.99491
 Atom     3 has atomic number  7 and mass  14.00307
 Atom     4 has atomic number  6 and mass  12.00000
 Atom     5 has atomic number  6 and mass  12.00000
 Atom     6 has atomic number  6 and mass  12.00000
 Atom     7 has atomic number  6 and mass  12.00000
 Atom     8 has atomic number  6 and mass  12.00000
 Atom     9 has atomic number  6 and mass  12.00000
 Atom    10 has atomic number  6 and mass  12.00000
 Atom    11 has atomic number  6 and mass  12.00000
 Atom    12 has atomic number  1 and mass   1.00783
 Atom    13 has atomic number  1 and mass   1.00783
 Atom    14 has atomic number  1 and mass   1.00783
 Atom    15 has atomic number  1 and mass   1.00783
 Atom    16 has atomic number  1 and mass   1.00783
 Atom    17 has atomic number  1 and mass   1.00783
 Atom    18 has atomic number  1 and mass   1.00783
 Atom    19 has atomic number  1 and mass   1.00783
 Atom    20 has atomic number  1 and mass   1.00783
 Molecular mass:   151.06333 amu.
 Principal axes and moments of inertia in atomic units:
                           1         2         3
     Eigenvalues --   505.946783337.865963832.63700
           X            0.99988  -0.01581   0.00000
           Y            0.01581   0.99988  -0.00002
           Z            0.00000   0.00002   1.00000
 This molecule is an asymmetric top.
 Rotational symmetry number  1.
 Warning -- assumption of classical behavior for rotation
           may cause significant error
 Rotational temperatures (Kelvin)      0.17119     0.02595     0.02260
 Rotational constants (GHZ):           3.56706     0.54069     0.47089
 Zero-point vibrational energy     422297.6 (Joules/Mol)
                                  100.93155 (Kcal/Mol)
 Warning -- explicit consideration of  14 degrees of freedom as
           vibrations may cause significant error
 Vibrational temperatures:     40.51    85.30   114.95   228.12   279.15
          (Kelvin)            457.97   477.42   514.43   556.90   615.81
                              627.83   735.73   771.94   884.24   913.00
                              940.41   968.08  1061.53  1164.18  1216.92
                             1241.13  1258.34  1393.85  1397.47  1451.41
                             1504.77  1511.92  1581.01  1657.77  1712.74
                             1767.19  1818.88  1858.23  1890.94  1983.31
                             2007.43  2089.68  2116.61  2178.51  2204.14
                             2256.87  2284.04  2388.86  2418.14  2454.28
                             4405.28  4522.54  4524.93  4580.80  4588.06
                             4660.16  4720.58  5217.31  5279.74
 
 Zero-point correction=                           0.160845 (Hartree/Particle)
 Thermal correction to Energy=                    0.171030
 Thermal correction to Enthalpy=                  0.171974
 Thermal correction to Gibbs Free Energy=         0.123873
 Sum of electronic and zero-point Energies=           -515.178795
 Sum of electronic and thermal Energies=              -515.168610
 Sum of electronic and thermal Enthalpies=            -515.167666
 Sum of electronic and thermal Free Energies=         -515.215766
 
                     E (Thermal)             CV                S
                      KCal/Mol        Cal/Mol-Kelvin    Cal/Mol-Kelvin
 Total                  107.323             37.935            101.236
 Electronic               0.000              0.000              0.000
 Translational            0.889              2.981             40.948
 Rotational               0.889              2.981             30.249
 Vibrational            105.545             31.974             30.039
 Vibration     1          0.593              1.984              5.955
 Vibration     2          0.597              1.974              4.481
 Vibration     3          0.600              1.963              3.894
 Vibration     4          0.621              1.893              2.567
 Vibration     5          0.635              1.848              2.189
 Vibration     6          0.705              1.639              1.319
 Vibration     7          0.714              1.612              1.251
 Vibration     8          0.733              1.560              1.133
 Vibration     9          0.755              1.498              1.011
 Vibration    10          0.790              1.409              0.865
 Vibration    11          0.797              1.391              0.838
 Vibration    12          0.866              1.225              0.630
 Vibration    13          0.892              1.169              0.573
 Vibration    14          0.974              1.001              0.425
                       Q            Log10(Q)             Ln(Q)
 Total Bot       0.105272D-56        -56.977688       -131.195975
 Total V=0       0.101289D+18         17.005561         39.156752
 Vib (Bot)       0.158393D-70        -70.800264       -163.023633
 Vib (Bot)    1  0.735365D+01          0.866503          1.995196
 Vib (Bot)    2  0.348344D+01          0.542008          1.248019
 Vib (Bot)    3  0.257779D+01          0.411247          0.946931
 Vib (Bot)    4  0.127565D+01          0.105733          0.243459
 Vib (Bot)    5  0.103002D+01          0.012845          0.029577
 Vib (Bot)    6  0.591171D+00         -0.228287         -0.525649
 Vib (Bot)    7  0.562453D+00         -0.249914         -0.575448
 Vib (Bot)    8  0.513464D+00         -0.289490         -0.666575
 Vib (Bot)    9  0.464795D+00         -0.332738         -0.766158
 Vib (Bot)   10  0.407721D+00         -0.389637         -0.897173
 Vib (Bot)   11  0.397305D+00         -0.400876         -0.923052
 Vib (Bot)   12  0.318148D+00         -0.497371         -1.145239
 Vib (Bot)   13  0.296265D+00         -0.528320         -1.216502
 Vib (Bot)   14  0.239311D+00         -0.621037         -1.429990
 Vib (V=0)       0.152400D+04          3.182985          7.329095
 Vib (V=0)    1  0.787063D+01          0.896009          2.063138
 Vib (V=0)    2  0.401914D+01          0.604133          1.391067
 Vib (V=0)    3  0.312583D+01          0.494965          1.139699
 Vib (V=0)    4  0.187014D+01          0.271875          0.626015
 Vib (V=0)    5  0.164496D+01          0.216156          0.497717
 Vib (V=0)    6  0.127426D+01          0.105259          0.242368
 Vib (V=0)    7  0.125256D+01          0.097800          0.225193
 Vib (V=0)    8  0.121669D+01          0.085180          0.196135
 Vib (V=0)    9  0.118267D+01          0.072863          0.167772
 Vib (V=0)   10  0.114516D+01          0.058868          0.135547
 Vib (V=0)   11  0.113863D+01          0.056383          0.129828
 Vib (V=0)   12  0.109264D+01          0.038476          0.088594
 Vib (V=0)   13  0.108118D+01          0.033899          0.078055
 Vib (V=0)   14  0.105432D+01          0.022972          0.052895
 Electronic      0.100000D+01          0.000000          0.000000
 Translational   0.729783D+08          7.863194         18.105673
 Rotational      0.910714D+06          5.959382         13.721984
 ***** Axes restored to original set *****
 -------------------------------------------------------------------
 Center     Atomic                   Forces (Hartrees/Bohr)
 Number     Number              X              Y              Z
 -------------------------------------------------------------------
      1        8          -0.000003362    0.000006052    0.000000431
      2        8          -0.000007025    0.000005384    0.000000383
      3        7           0.000006399   -0.000009478    0.000004763
      4        6          -0.000004070   -0.000001461   -0.000005781
      5        6           0.000004368    0.000007720    0.000006034
      6        6           0.000000932    0.000003017   -0.000003262
      7        6          -0.000006500    0.000000869   -0.000000003
      8        6          -0.000000063    0.000001766    0.000000757
      9        6           0.000003336    0.000006511   -0.000002051
     10        6           0.000004922   -0.000010652    0.000000066
     11        6           0.000017696   -0.000021271   -0.000003695
     12        1          -0.000003964   -0.000003025   -0.000002156
     13        1           0.000004085   -0.000000386   -0.000000450
     14        1           0.000004251    0.000003370    0.000004067
     15        1          -0.000001074    0.000002969   -0.000000342
     16        1          -0.000000329    0.000002513   -0.000000018
     17        1          -0.000005626    0.000000804    0.000004299
     18        1          -0.000002895   -0.000000448   -0.000003625
     19        1          -0.000009123   -0.000000061    0.000001557
     20        1          -0.000001958    0.000005805   -0.000000973
 -------------------------------------------------------------------
 Cartesian Forces:  Max     0.000021271 RMS     0.000005470
 FormGI is forming the generalized inverse of G from B-inverse, IUseBI=4.

 GradGradGradGradGradGradGradGradGradGradGradGradGradGradGradGradGradGrad
 Berny optimization.
 Internal  Forces:  Max     0.000018642 RMS     0.000004139
 Search for a local minimum.
 Step number   1 out of a maximum of    2
 All quantities printed in internal units (Hartrees-Bohrs-Radians)
 Second derivative matrix not updated -- analytic derivatives used.
 ITU=  0
     Eigenvalues ---    0.00005   0.00387   0.00626   0.01124   0.01443
     Eigenvalues ---    0.01684   0.01851   0.02016   0.02396   0.02436
     Eigenvalues ---    0.02639   0.02824   0.02982   0.03072   0.03805
     Eigenvalues ---    0.05832   0.06222   0.11275   0.11758   0.12476
     Eigenvalues ---    0.12883   0.13108   0.13630   0.14858   0.15272
     Eigenvalues ---    0.16323   0.18099   0.19634   0.20101   0.20592
     Eigenvalues ---    0.22423   0.22995   0.23378   0.30020   0.32866
     Eigenvalues ---    0.34482   0.34602   0.34909   0.34987   0.35900
     Eigenvalues ---    0.36052   0.37057   0.37247   0.39465   0.41662
     Eigenvalues ---    0.42204   0.44207   0.47103   0.47879   0.48407
     Eigenvalues ---    0.48736   0.51750   0.56596   0.72463
 Angle between quadratic step and forces=  73.92 degrees.
 Linear search not attempted -- first point.
 Iteration  1 RMS(Cart)=  0.00031327 RMS(Int)=  0.00000006
 Iteration  2 RMS(Cart)=  0.00000011 RMS(Int)=  0.00000000
 Variable       Old X    -DE/DX   Delta X   Delta X   Delta X     New X
                                 (Linear)    (Quad)   (Total)
    R1        2.63482   0.00000   0.00000  -0.00001  -0.00001   2.63481
    R2        1.84483   0.00000   0.00000   0.00000   0.00000   1.84483
    R3        2.36353   0.00001   0.00000   0.00002   0.00002   2.36355
    R4        2.68351   0.00000   0.00000  -0.00001  -0.00001   2.68351
    R5        2.60441   0.00000   0.00000  -0.00001  -0.00001   2.60441
    R6        1.90843  -0.00001   0.00000  -0.00001  -0.00001   1.90842
    R7        2.65510   0.00000   0.00000   0.00001   0.00001   2.65512
    R8        2.66115   0.00000   0.00000  -0.00001  -0.00001   2.66114
    R9        2.64255   0.00000   0.00000  -0.00001  -0.00001   2.64254
   R10        2.04072   0.00000   0.00000   0.00000   0.00000   2.04071
   R11        2.63018   0.00000   0.00000   0.00000   0.00000   2.63018
   R12        2.05449   0.00000   0.00000   0.00000   0.00000   2.05449
   R13        2.64169   0.00000   0.00000   0.00000   0.00000   2.64169
   R14        2.05405   0.00000   0.00000   0.00000   0.00000   2.05405
   R15        2.64389   0.00000   0.00000   0.00000   0.00000   2.64389
   R16        2.04709   0.00000   0.00000   0.00000   0.00000   2.04708
   R17        2.86932   0.00000   0.00000  -0.00001  -0.00001   2.86931
   R18        2.06827   0.00000   0.00000   0.00000   0.00000   2.06827
   R19        2.06826   0.00000   0.00000   0.00001   0.00001   2.06828
   R20        2.06770  -0.00001   0.00000  -0.00002  -0.00002   2.06768
    A1        1.94758   0.00000   0.00000   0.00000   0.00000   1.94758
    A2        2.24444  -0.00001   0.00000  -0.00003  -0.00003   2.24442
    A3        2.00623   0.00000   0.00000   0.00001   0.00001   2.00624
    A4        2.03251   0.00001   0.00000   0.00002   0.00002   2.03253
    A5        2.15315   0.00000   0.00000   0.00001   0.00001   2.15316
    A6        2.05003   0.00000   0.00000   0.00000   0.00000   2.05003
    A7        2.08000   0.00000   0.00000   0.00000   0.00000   2.08000
    A8        2.08886   0.00000   0.00000   0.00000   0.00000   2.08886
    A9        2.08383   0.00000   0.00000  -0.00002  -0.00002   2.08380
   A10        2.11049   0.00000   0.00000   0.00003   0.00003   2.11052
   A11        2.11072   0.00000   0.00000   0.00000   0.00000   2.11072
   A12        2.09073   0.00000   0.00000   0.00001   0.00001   2.09074
   A13        2.08174   0.00000   0.00000  -0.00001  -0.00001   2.08172
   A14        2.10623   0.00000   0.00000   0.00001   0.00001   2.10623
   A15        2.07846   0.00000   0.00000   0.00001   0.00001   2.07847
   A16        2.09850   0.00000   0.00000  -0.00002  -0.00002   2.09848
   A17        2.08791   0.00000   0.00000   0.00000   0.00000   2.08791
   A18        2.11720   0.00000   0.00000  -0.00003  -0.00003   2.11717
   A19        2.07808   0.00000   0.00000   0.00003   0.00003   2.07810
   A20        2.15016   0.00000   0.00000  -0.00001  -0.00001   2.15015
   A21        2.04038   0.00000   0.00000   0.00001   0.00001   2.04039
   A22        2.09265   0.00000   0.00000   0.00000   0.00000   2.09264
   A23        2.16052   0.00000   0.00000   0.00001   0.00001   2.16053
   A24        2.11580  -0.00001   0.00000  -0.00008  -0.00008   2.11572
   A25        2.00687   0.00002   0.00000   0.00007   0.00007   2.00694
   A26        1.90257   0.00000   0.00000  -0.00004  -0.00004   1.90253
   A27        1.90258  -0.00001   0.00000  -0.00005  -0.00005   1.90253
   A28        1.98706   0.00002   0.00000   0.00016   0.00016   1.98722
   A29        1.87142  -0.00001   0.00000  -0.00012  -0.00012   1.87130
   A30        1.89839   0.00000   0.00000   0.00003   0.00003   1.89843
   A31        1.89843   0.00000   0.00000   0.00000   0.00000   1.89843
    D1        0.00007   0.00000   0.00000  -0.00007  -0.00007   0.00000
    D2       -3.14153   0.00000   0.00000  -0.00006  -0.00006   3.14159
    D3       -0.00084   0.00000   0.00000   0.00084   0.00084   0.00000
    D4        3.14082   0.00000   0.00000   0.00077   0.00077  -3.14159
    D5        3.14086   0.00000   0.00000   0.00073   0.00073  -3.14159
    D6       -0.00066   0.00000   0.00000   0.00066   0.00066   0.00000
    D7        0.00021   0.00000   0.00000  -0.00021  -0.00021   0.00000
    D8       -3.14142   0.00000   0.00000  -0.00016  -0.00016  -3.14159
    D9       -3.14149   0.00000   0.00000  -0.00010  -0.00010  -3.14159
   D10        0.00006   0.00000   0.00000  -0.00005  -0.00005   0.00001
   D11       -3.14153   0.00000   0.00000  -0.00007  -0.00007   3.14159
   D12        0.00018   0.00000   0.00000  -0.00018  -0.00018   0.00000
   D13        0.00000   0.00000   0.00000   0.00000   0.00000   0.00000
   D14       -3.14148   0.00000   0.00000  -0.00011  -0.00011   3.14159
   D15        3.14150   0.00000   0.00000   0.00010   0.00010  -3.14159
   D16       -0.00010   0.00000   0.00000   0.00010   0.00010   0.00000
   D17       -0.00003   0.00000   0.00000   0.00003   0.00003   0.00000
   D18        3.14156   0.00000   0.00000   0.00004   0.00004  -3.14159
   D19        0.00003   0.00000   0.00000  -0.00003  -0.00003   0.00000
   D20       -3.14157   0.00000   0.00000  -0.00002  -0.00002  -3.14159
   D21        3.14151   0.00000   0.00000   0.00008   0.00008  -3.14159
   D22       -0.00009   0.00000   0.00000   0.00009   0.00009   0.00000
   D23        0.00004   0.00000   0.00000  -0.00004  -0.00004   0.00000
   D24       -3.14158   0.00000   0.00000  -0.00002  -0.00002   3.14159
   D25       -3.14155   0.00000   0.00000  -0.00004  -0.00004   3.14159
   D26        0.00002   0.00000   0.00000  -0.00002  -0.00002   0.00000
   D27        3.14156   0.00000   0.00000   0.00003   0.00003  -3.14159
   D28       -0.00003   0.00000   0.00000   0.00003   0.00003   0.00000
   D29       -0.00003   0.00000   0.00000   0.00003   0.00003   0.00000
   D30        3.14157   0.00000   0.00000   0.00002   0.00002   3.14159
   D31        3.14159   0.00000   0.00000   0.00000   0.00000   3.14159
   D32       -0.00001   0.00000   0.00000   0.00001   0.00001   0.00000
   D33        0.00002   0.00000   0.00000  -0.00002  -0.00002   0.00000
   D34       -3.14158   0.00000   0.00000  -0.00001  -0.00001   3.14159
   D35        1.01906  -0.00001   0.00000  -0.00045  -0.00045   1.01861
   D36       -1.01844   0.00001   0.00000  -0.00026  -0.00026  -1.01870
   D37       -3.14131   0.00000   0.00000  -0.00033  -0.00033   3.14155
   D38       -2.12249  -0.00001   0.00000  -0.00049  -0.00049  -2.12299
   D39        2.12319   0.00001   0.00000  -0.00030  -0.00030   2.12289
   D40        0.00032   0.00000   0.00000  -0.00037  -0.00037  -0.00005
         Item               Value     Threshold  Converged?
 Maximum Force            0.000019     0.000450     YES
 RMS     Force            0.000004     0.000300     YES
 Maximum Displacement     0.001616     0.001800     YES
 RMS     Displacement     0.000313     0.001200     YES
 Predicted change in Energy=-1.006276D-08
 Optimization completed.
    -- Stationary point found.
                           ----------------------------
                           !   Optimized Parameters   !
                           ! (Angstroms and Degrees)  !
 --------------------------                            --------------------------
 ! Name  Definition              Value          Derivative Info.                !
 --------------------------------------------------------------------------------
 ! R1    R(1,9)                  1.3943         -DE/DX =    0.0                 !
 ! R2    R(1,20)                 0.9762         -DE/DX =    0.0                 !
 ! R3    R(2,10)                 1.2507         -DE/DX =    0.0                 !
 ! R4    R(3,4)                  1.4201         -DE/DX =    0.0                 !
 ! R5    R(3,10)                 1.3782         -DE/DX =    0.0                 !
 ! R6    R(3,14)                 1.0099         -DE/DX =    0.0                 !
 ! R7    R(4,5)                  1.405          -DE/DX =    0.0                 !
 ! R8    R(4,6)                  1.4082         -DE/DX =    0.0                 !
 ! R9    R(5,7)                  1.3984         -DE/DX =    0.0                 !
 ! R10   R(5,12)                 1.0799         -DE/DX =    0.0                 !
 ! R11   R(6,8)                  1.3918         -DE/DX =    0.0                 !
 ! R12   R(6,13)                 1.0872         -DE/DX =    0.0                 !
 ! R13   R(7,9)                  1.3979         -DE/DX =    0.0                 !
 ! R14   R(7,15)                 1.087          -DE/DX =    0.0                 !
 ! R15   R(8,9)                  1.3991         -DE/DX =    0.0                 !
 ! R16   R(8,16)                 1.0833         -DE/DX =    0.0                 !
 ! R17   R(10,11)                1.5184         -DE/DX =    0.0                 !
 ! R18   R(11,17)                1.0945         -DE/DX =    0.0                 !
 ! R19   R(11,18)                1.0945         -DE/DX =    0.0                 !
 ! R20   R(11,19)                1.0942         -DE/DX =    0.0                 !
 ! A1    A(9,1,20)             111.588          -DE/DX =    0.0                 !
 ! A2    A(4,3,10)             128.5972         -DE/DX =    0.0                 !
 ! A3    A(4,3,14)             114.9485         -DE/DX =    0.0                 !
 ! A4    A(10,3,14)            116.4543         -DE/DX =    0.0                 !
 ! A5    A(3,4,5)              123.3665         -DE/DX =    0.0                 !
 ! A6    A(3,4,6)              117.4583         -DE/DX =    0.0                 !
 ! A7    A(5,4,6)              119.1752         -DE/DX =    0.0                 !
 ! A8    A(4,5,7)              119.683          -DE/DX =    0.0                 !
 ! A9    A(4,5,12)             119.3946         -DE/DX =    0.0                 !
 ! A10   A(7,5,12)             120.9224         -DE/DX =    0.0                 !
 ! A11   A(4,6,8)              120.9354         -DE/DX =    0.0                 !
 ! A12   A(4,6,13)             119.7899         -DE/DX =    0.0                 !
 ! A13   A(8,6,13)             119.2747         -DE/DX =    0.0                 !
 ! A14   A(5,7,9)              120.6779         -DE/DX =    0.0                 !
 ! A15   A(5,7,15)             119.087          -DE/DX =    0.0                 !
 ! A16   A(9,7,15)             120.2352         -DE/DX =    0.0                 !
 ! A17   A(6,8,9)              119.6285         -DE/DX =    0.0                 !
 ! A18   A(6,8,16)             121.3064         -DE/DX =    0.0                 !
 ! A19   A(9,8,16)             119.0652         -DE/DX =    0.0                 !
 ! A20   A(1,9,7)              123.195          -DE/DX =    0.0                 !
 ! A21   A(1,9,8)              116.9051         -DE/DX =    0.0                 !
 ! A22   A(7,9,8)              119.9            -DE/DX =    0.0                 !
 ! A23   A(2,10,3)             123.7887         -DE/DX =    0.0                 !
 ! A24   A(2,10,11)            121.2263         -DE/DX =    0.0                 !
 ! A25   A(3,10,11)            114.985          -DE/DX =    0.0                 !
 ! A26   A(10,11,17)           109.009          -DE/DX =    0.0                 !
 ! A27   A(10,11,18)           109.0097         -DE/DX =    0.0                 !
 ! A28   A(10,11,19)           113.8501         -DE/DX =    0.0                 !
 ! A29   A(17,11,18)           107.2245         -DE/DX =    0.0                 !
 ! A30   A(17,11,19)           108.7699         -DE/DX =    0.0                 !
 ! A31   A(18,11,19)           108.7719         -DE/DX =    0.0                 !
 ! D1    D(20,1,9,7)             0.0041         -DE/DX =    0.0                 !
 ! D2    D(20,1,9,8)           180.0037         -DE/DX =    0.0                 !
 ! D3    D(10,3,4,5)            -0.048          -DE/DX =    0.0                 !
 ! D4    D(10,3,4,6)          -180.0441         -DE/DX =    0.0                 !
 ! D5    D(14,3,4,5)          -180.0418         -DE/DX =    0.0                 !
 ! D6    D(14,3,4,6)            -0.0379         -DE/DX =    0.0                 !
 ! D7    D(4,3,10,2)             0.012          -DE/DX =    0.0                 !
 ! D8    D(4,3,10,11)         -179.9902         -DE/DX =    0.0                 !
 ! D9    D(14,3,10,2)         -179.9943         -DE/DX =    0.0                 !
 ! D10   D(14,3,10,11)           0.0035         -DE/DX =    0.0                 !
 ! D11   D(3,4,5,7)            180.0039         -DE/DX =    0.0                 !
 ! D12   D(3,4,5,12)             0.0104         -DE/DX =    0.0                 !
 ! D13   D(6,4,5,7)             -0.0001         -DE/DX =    0.0                 !
 ! D14   D(6,4,5,12)           180.0064         -DE/DX =    0.0                 !
 ! D15   D(3,4,6,8)           -180.0056         -DE/DX =    0.0                 !
 ! D16   D(3,4,6,13)            -0.0058         -DE/DX =    0.0                 !
 ! D17   D(5,4,6,8)             -0.0018         -DE/DX =    0.0                 !
 ! D18   D(5,4,6,13)          -180.0021         -DE/DX =    0.0                 !
 ! D19   D(4,5,7,9)              0.0018         -DE/DX =    0.0                 !
 ! D20   D(4,5,7,15)          -179.9987         -DE/DX =    0.0                 !
 ! D21   D(12,5,7,9)          -180.0048         -DE/DX =    0.0                 !
 ! D22   D(12,5,7,15)           -0.0053         -DE/DX =    0.0                 !
 ! D23   D(4,6,8,9)              0.0021         -DE/DX =    0.0                 !
 ! D24   D(4,6,8,16)           180.0009         -DE/DX =    0.0                 !
 ! D25   D(13,6,8,9)           180.0024         -DE/DX =    0.0                 !
 ! D26   D(13,6,8,16)            0.0012         -DE/DX =    0.0                 !
 ! D27   D(5,7,9,1)           -180.0019         -DE/DX =    0.0                 !
 ! D28   D(5,7,9,8)             -0.0014         -DE/DX =    0.0                 !
 ! D29   D(15,7,9,1)            -0.0015         -DE/DX =    0.0                 !
 ! D30   D(15,7,9,8)           179.999          -DE/DX =    0.0                 !
 ! D31   D(6,8,9,1)            179.9999         -DE/DX =    0.0                 !
 ! D32   D(6,8,9,7)             -0.0005         -DE/DX =    0.0                 !
 ! D33   D(16,8,9,1)             0.0011         -DE/DX =    0.0                 !
 ! D34   D(16,8,9,7)           180.0007         -DE/DX =    0.0                 !
 ! D35   D(2,10,11,17)          58.3879         -DE/DX =    0.0                 !
 ! D36   D(2,10,11,18)         -58.3525         -DE/DX =    0.0                 !
 ! D37   D(2,10,11,19)         180.0161         -DE/DX =    0.0                 !
 ! D38   D(3,10,11,17)        -121.6099         -DE/DX =    0.0                 !
 ! D39   D(3,10,11,18)         121.6497         -DE/DX =    0.0                 !
 ! D40   D(3,10,11,19)           0.0183         -DE/DX =    0.0                 !
 --------------------------------------------------------------------------------
 GradGradGradGradGradGradGradGradGradGradGradGradGradGradGradGradGradGrad

 1|1|UNPC-EMON|Freq|RB3LYP|6-31G|C8H9N1O2|IABDU|23-Aug-2026|0||#N Geom=
 AllCheck Guess=TCheck SCRF=Check GenChk RB3LYP/6-31G Freq||1983||0,1|O
 ,3.9230929494,0.3846344609,0.0276609068|O,-2.6164954111,1.3593685843,-
 0.1740364783|N,-1.5869678714,-0.7095512352,0.027571077|C,-0.2115993525
 ,-0.3561865668,0.0205015347|C,0.2455257088,0.9678131725,-0.0897044216|
 C,0.7275165566,-1.3997651796,0.1304447322|C,1.6194069918,1.2284137648,
 -0.0885902845|C,2.0940287566,-1.135485769,0.1310582531|C,2.5431953173,
 0.1849639553,0.0210348908|C,-2.6871072245,0.1154170649,-0.0648802653|C
 ,-4.0276853704,-0.596449988,-0.0252086927|H,-0.471556175,1.7708417327,
 -0.1741012764|H,0.3848454532,-2.4279598456,0.2162820331|H,-1.772213320
 2,-1.6987161376,0.1120216284|H,1.9623393199,2.2562860426,-0.1743372699
 |H,2.8216519409,-1.9335750789,0.2152910891|H,-4.5815601879,-0.36477774
 61,-0.9403273883|H,-4.6125911809,-0.2085619073,0.8146178247|H,-3.94872
 38368,-1.6833557479,0.0729158016|H,4.1494969362,1.3308464238,-0.052813
 6947||Version=IA32W-G09RevD.01|State=1-A|HF=-515.3396396|RMSD=4.568e-0
 09|RMSF=5.470e-006|ZeroPoint=0.1608447|Thermal=0.1710297|Dipole=-0.209
 349,-0.8707459,0.0731757|DipoleDeriv=-1.6164614,-0.2708129,0.0046856,-
 0.2598992,-0.1433652,-0.0376985,0.0036927,-0.0379046,-0.5106177,-0.750
 3265,-0.0573769,-0.0008933,0.4565784,-0.9601,0.0567468,-0.0464315,0.04
 7739,-0.4156245,-1.7238073,0.2178945,-0.0413734,0.3759381,-0.3997946,0
 .0004596,-0.0553185,-0.0024288,-0.4700522,0.9662229,0.0730474,0.007664
 1,0.329945,-0.1306127,0.032254,-0.0151985,0.0277701,0.163733,-0.094393
 4,0.1153969,-0.0097952,-0.1413624,0.0211715,-0.0155199,0.0130631,-0.01
 08934,-0.1230255,-0.016746,-0.0990052,0.0116639,0.0918066,0.1378269,-0
 .0263102,-0.0053934,-0.0296759,-0.1722787,-0.2567361,-0.1184501,0.0094
 428,0.2358798,0.1308759,-0.0245502,-0.022274,-0.0308132,-0.1882376,-0.
 1666431,0.0288688,-0.0029423,-0.3366309,0.0411424,-0.0227261,0.0297703
 ,-0.0162759,-0.144542,1.3942897,0.2993733,-0.0048956,0.3150812,0.02532
 62,0.0176504,-0.006284,0.0173778,0.1586698,1.769826,-0.1414382,0.03818
 3,-0.8330411,1.1643328,-0.0906135,0.0997219,-0.0784479,0.3160695,-0.33
 34716,-0.1463438,0.0069626,-0.1066352,0.0457251,-0.0050767,0.003283,-0
 .0057884,0.0105664,0.1548215,0.041218,-0.0036355,0.0391408,0.0733534,0
 .0076411,-0.0034914,0.0076349,0.1502439,0.0313625,-0.0976447,0.0069153
 ,-0.0798537,-0.0886712,0.0184014,0.0053031,0.0180781,0.1315025,0.16041
 62,0.0163732,-0.0045162,-0.0436959,0.1028605,0.0197551,0.0007695,0.020
 8202,0.3321486,0.0021604,-0.085207,0.0051551,-0.0904038,-0.0816088,0.0
 182766,0.0056323,0.0183575,0.1393141,0.0034907,0.0692727,-0.0087331,0.
 0755031,0.0083496,0.0137302,-0.0092927,0.0136154,0.1456302,0.0242434,-
 0.0012873,-0.0627931,-0.0104396,0.0687759,0.0506513,-0.0930307,0.02971
 12,-0.0163674,0.0187981,0.0111863,0.0628704,0.0082859,0.0522166,-0.062
 5018,0.0941986,-0.0413305,0.005771,0.0277264,0.0572147,-0.0061466,-0.0
 379552,-0.1429094,0.0198326,0.002327,0.0215075,0.0856227,0.4052276,0.0
 877202,-0.0078185,0.011758,0.0751052,0.0295976,-0.0010469,0.0309469,0.
 4014739|Polar=147.5594678,2.8158645,98.8462884,1.7074058,-5.5053033,37
 .100422|PG=C01 [X(C8H9N1O2)]|NImag=0||0.40321230,0.13818222,0.55600199
 ,-0.00562805,-0.04499389,0.02861732,-0.00113521,0.00028371,-0.00004494
 ,0.10480413,0.00348004,0.00090260,-0.00002416,0.03235485,0.68833930,-0
 .00032762,-0.00008071,-0.00005705,-0.00159563,-0.05770325,0.03677359,-
 0.00863470,-0.00158296,-0.00000087,0.01289635,0.03729398,-0.00341174,0
 .68692924,0.00106733,0.00044620,-0.00007366,0.04897031,-0.07376244,0.0
 0906890,-0.00439178,0.82550956,-0.00023615,-0.00012016,-0.00058604,-0.
 00444839,0.00885957,0.01790708,0.01099996,-0.06577422,0.09090368,0.002
 32257,-0.00054641,0.00010935,0.00703632,-0.01076821,0.00114685,-0.2420
 7657,-0.04709774,0.00081813,0.67176745,0.00026187,0.00554327,-0.000587
 44,-0.00293218,-0.00169245,-0.00024749,-0.02248830,-0.14216958,0.00761
 518,0.00688604,0.71081040,0.00003764,-0.00060154,-0.00102335,0.0004531
 8,-0.00038337,-0.00385328,-0.00137155,0.00719173,-0.05260654,0.0085124
 0,-0.04925016,0.16245936,0.00260864,-0.00320093,0.00020570,-0.00707686
 ,-0.00120221,-0.00003811,-0.01610143,-0.04634068,0.00378654,-0.1431108
 5,-0.01502230,0.00003495,0.73464779,0.00324581,-0.00794862,0.00140259,
 -0.00681126,-0.00163512,0.00015228,-0.01294310,-0.00791223,0.00081567,
 -0.07505365,-0.30223432,0.01943920,-0.05026408,0.70898912,-0.00037072,
 0.00128779,0.00698278,0.00046271,0.00024715,0.00134637,0.00079966,0.00
 021484,0.00375625,0.00540862,0.02050606,-0.07147401,0.01503883,-0.0517
 2503,0.14478920,0.00213348,0.00620661,-0.00060157,-0.00055076,0.002793
 94,-0.00025820,-0.05648741,0.03550706,-0.00428920,-0.19505453,0.055605
 05,-0.00719770,0.05277368,0.04018043,-0.00282725,0.71952836,0.00249425
 ,-0.00693876,0.00108975,0.00114730,0.00064674,-0.00003086,-0.00387420,
 0.01159090,-0.00052587,0.12365906,-0.23769020,0.01723931,0.00144129,-0
 .05143347,0.00547913,0.03734271,0.71978239,-0.00026891,0.00115582,0.00
 465436,-0.00011346,0.00000097,0.00008057,-0.00077247,0.00017039,0.0064
 1502,-0.01328513,0.01603504,-0.07098673,0.00063721,0.00616673,0.009026
 63,0.00704026,-0.05164947,0.13929710,-0.04533040,0.03397300,-0.0039625
 5,-0.00178651,0.00162641,-0.00018930,0.00163555,0.00489768,-0.00053270
 ,-0.00898805,-0.08157050,0.00704684,-0.34122248,-0.01207602,-0.0039206
 6,-0.05477472,0.01923031,-0.00261582,0.69992529,-0.00878574,0.00821730
 ,-0.00026951,0.00325373,0.00076045,0.00006339,0.00287486,-0.00626619,0
 .00122034,-0.04198057,0.00982495,-0.00119317,-0.06653110,-0.13408257,0
 .00547305,0.01839224,-0.00978003,0.00082622,0.02316096,0.73227716,-0.0
 0014219,0.00048934,0.00690222,-0.00033540,0.00003767,0.00084257,-0.000
 35292,0.00125687,0.00670182,0.00350683,-0.00189290,0.00507854,0.000945
 36,0.00643843,-0.06019539,-0.00254258,0.00084300,-0.00429244,0.0080623
 4,-0.05348604,0.13394435,-0.02736436,-0.05390958,0.00424546,0.00048974
 ,-0.00003844,0.00001524,0.00390884,0.00056934,-0.00007475,-0.04838145,
 0.05587982,-0.00594935,-0.03444860,-0.03026324,0.00214329,-0.35854225,
 -0.07114343,0.00102400,0.05270885,0.00221591,0.00059664,0.75150366,-0.
 01432881,-0.00781046,0.00087826,0.00057121,0.00146517,-0.00013944,0.00
 212045,-0.00658470,0.00111742,0.01539236,0.05123601,-0.00382847,-0.029
 65330,-0.02868253,0.00178695,-0.01674728,-0.13567108,0.00665860,0.0411
 7089,-0.04868023,0.00579671,-0.03299953,0.71423562,0.00070883,0.000175
 68,0.00485388,-0.00003852,-0.00015125,-0.00019760,-0.00021541,0.001087
 98,0.00538341,-0.00233042,-0.00310790,0.00559090,0.00208837,0.00177616
 ,-0.00291736,-0.00383591,0.00569169,-0.05843331,-0.00288616,0.00510524
 ,0.00749660,0.01396248,-0.05273620,0.13562628,-0.27379882,-0.06129962,
 0.00126322,0.00024824,-0.00278942,0.00025541,0.00426735,-0.00188829,0.
 00025688,-0.00232700,0.01401730,-0.00120176,-0.04887773,0.01834427,-0.
 00256058,-0.00854383,-0.04173393,0.00351613,-0.20410907,0.13075806,-0.
 01414740,-0.13440744,-0.08374143,0.00630685,0.68053780,0.00052310,-0.1
 0465813,0.00611295,-0.00122471,0.00009656,-0.00004446,-0.00138232,0.00
 242250,-0.00031145,0.01535175,-0.07383646,0.00640660,0.06213969,0.0545
 5380,-0.00349787,-0.08533560,0.01172806,-0.00225105,0.05720542,-0.2535
 8424,0.01784336,-0.01411080,-0.31685771,0.02197738,0.00860503,0.725476
 24,-0.00425713,0.00501730,-0.03683911,0.00011665,-0.00007384,-0.000165
 56,0.00021220,-0.00031726,-0.00071045,-0.00132031,0.00637893,-0.005831
 00,-0.00647415,-0.00427386,0.00333719,0.00741324,-0.00147805,0.0037333
 2,-0.00757586,0.01915108,-0.06705650,0.00008369,0.02074107,-0.06995935
 ,0.00867175,-0.05141269,0.15310981,0.00467813,0.00082601,0.00001088,-0
 .10539498,-0.05361025,0.00418113,-0.25446012,0.08703870,-0.01116970,-0
 .04894045,0.01654066,-0.00234691,0.00250508,0.00360723,-0.00028987,0.0
 0280158,-0.00463628,0.00046830,-0.00029081,-0.00004390,0.00001297,-0.0
 0041872,0.00201792,-0.00021817,-0.00252487,-0.00037969,-0.00001216,0.5
 9061507,-0.00557216,-0.00151444,0.00002804,-0.03999401,-0.58251998,0.0
 4456468,0.05226320,-0.18691697,0.01235034,0.00647906,0.02329002,-0.001
 85818,-0.00059889,0.00421270,-0.00030605,-0.00787928,-0.00291573,0.000
 10539,-0.00105657,-0.00143670,0.00003326,-0.00099651,-0.00132358,0.000
 24567,0.00437593,0.00078671,0.00001443,0.00956078,0.88668288,0.0005800
 4,0.00014036,-0.00010115,0.00297289,0.04432928,-0.07628425,-0.00807738
 ,0.01295106,-0.05934899,-0.00145775,-0.00167279,0.00121909,0.00008230,
 -0.00023197,0.00092223,0.00074716,0.00016280,-0.00014520,0.00010355,0.
 00005212,-0.00082420,0.00005117,0.00029979,0.00159875,-0.00043478,-0.0
 0006925,0.00007484,0.00575625,-0.05952382,0.21931249,-0.00049808,-0.00
 006995,-0.00000543,0.00172748,-0.01475923,0.00106490,-0.04140098,-0.00
 970517,-0.00009533,0.00367533,0.00318016,-0.00033917,-0.00035759,-0.00
 061494,0.00005541,-0.00108081,-0.00049370,0.00001677,0.00006451,0.0000
 2093,0.00001145,-0.00008989,0.00026557,-0.00001531,0.00035180,0.000075
 07,0.00000011,-0.16614459,-0.02958395,0.00123628,0.49129362,0.00006502
 ,0.00006393,0.00001015,-0.04000779,-0.03706938,0.00398401,0.02074299,0
 .01081724,0.00056276,0.00235379,-0.00284500,0.00091546,-0.00016010,-0.
 00058802,0.00001471,0.00076741,0.00078822,-0.00001522,-0.00002306,0.00
 034814,-0.00009415,0.00022829,-0.00017033,-0.00003165,-0.00015653,-0.0
 0016243,0.00000846,-0.04235698,-0.10264939,0.00065760,-0.04533505,0.58
 523869,-0.00001830,0.00000785,0.00016497,0.00330601,0.00442827,0.01539
 011,-0.00279341,0.00002836,0.01297254,-0.00026695,0.00092776,0.0069118
 6,0.00001452,0.00000501,-0.00040144,-0.00009401,-0.00003559,0.00047124
 ,0.00001488,-0.00009304,-0.00069865,-0.00001136,-0.00003238,-0.0005728
 8,0.00002120,0.00001214,-0.00003634,0.00237089,0.00088334,-0.08685924,
 0.00301449,-0.00410343,0.54833099,-0.00096855,0.00082005,-0.00009382,-
 0.00524474,0.00516424,-0.00051587,-0.00268183,0.00331080,-0.00026159,0
 .01369911,-0.01229577,0.00123630,-0.18542538,0.15142060,-0.01608587,-0
 .00086956,-0.00268958,0.00012671,-0.01525491,0.02143205,-0.00224674,-0
 .00009882,-0.00081644,0.00008082,-0.00300015,-0.00259992,0.00004723,0.
 00150831,-0.00861887,0.00078170,-0.00006636,0.00091633,-0.00009734,0.1
 9661460,-0.00063052,0.00046050,-0.00003477,0.00442723,0.00162019,-0.00
 024882,-0.00034152,0.00191637,-0.00058150,0.02280027,-0.01846962,0.002
 58719,0.14523365,-0.23019429,0.01946722,-0.00305160,-0.00371616,0.0007
 7709,-0.00886560,0.01012290,-0.00074821,-0.00104344,-0.00000771,-0.000
 06514,-0.00264139,0.00049464,0.00057556,-0.00166546,-0.00434722,0.0004
 1259,0.00011447,0.00035257,0.00004776,-0.15594990,0.24159099,0.0000351
 4,-0.00000866,0.00019871,-0.00045135,-0.00023618,-0.00201217,0.0000658
 6,-0.00051817,-0.00448452,-0.00189976,0.00196783,0.00576381,-0.0155292
 9,0.01956734,-0.04302913,0.00015863,0.00078426,0.00552758,0.00045767,-
 0.00020764,0.00353564,0.00010063,-0.00006171,-0.00052457,0.00004936,0.
 00057683,0.00741853,0.00016235,0.00029634,0.00059269,-0.00002603,0.000
 05977,0.00085387,0.01689365,-0.02172084,0.03150757,-0.00048186,-0.0016
 9071,0.00013815,-0.00005063,-0.00041184,0.00003291,0.00274751,0.001477
 99,-0.00001066,0.00728955,0.02105769,-0.00183497,-0.00242855,0.0029218
 8,-0.00039085,-0.08677527,-0.08004290,0.00625256,-0.00094251,0.0002697
 2,-0.00003492,-0.00685478,-0.03280067,0.00275713,-0.00461065,0.0008264
 1,-0.00029238,-0.00014177,0.00058677,-0.00004459,0.00005652,-0.0000297
 2,0.00000057,0.00041928,0.00087809,-0.00007376,0.09176005,-0.00043941,
 -0.00044600,0.00005385,0.00004266,0.00075078,-0.00005189,-0.00182003,0
 .00167961,-0.00054515,-0.01351102,-0.01946583,0.00191289,0.00447295,-0
 .00166746,0.00066556,-0.08005480,-0.30757340,0.02286522,0.00066695,0.0
 0077031,-0.00008679,0.00146124,-0.00272719,0.00053725,0.00010770,0.002
 35571,0.00048103,0.00072463,-0.00039419,-0.00000246,0.00002783,-0.0000
 5482,0.00002067,-0.00086314,-0.00096636,0.00008489,0.08737718,0.326780
 00,0.00002631,0.00003159,0.00024105,-0.00000729,-0.00006014,0.00016213
 ,0.00028376,-0.00048333,-0.00400235,0.00125343,0.00252434,0.00441194,-
 0.00052935,0.00063814,0.00482605,0.00625500,0.02286676,-0.03785046,-0.
 00007072,-0.00009401,-0.00032687,-0.00030537,-0.00007052,0.00299582,-0
 .00022816,0.00049330,0.00766543,-0.00005673,-0.00000461,-0.00055829,-0
 .00000444,0.00001951,0.00016921,0.00008166,0.00011574,0.00014491,-0.00
 661550,-0.02547963,0.02658822,-0.00006785,0.00012482,-0.00001061,-0.00
 529073,0.00382649,-0.00054080,-0.08363974,-0.06919068,0.00498457,-0.00
 782009,-0.03784153,0.00321058,-0.00597190,0.00127946,-0.00024593,0.001
 31623,-0.00324743,0.00033350,0.00065624,-0.00149324,0.00013060,-0.0004
 0855,0.00032931,-0.00002318,0.00018788,0.00040174,-0.00003744,0.010820
 57,0.03295786,-0.00271383,-0.00129405,0.00179053,-0.00010829,-0.000012
 19,0.00014007,-0.00000880,-0.00073130,0.00207606,-0.00021598,0.0949739
 0,0.00021257,0.00000344,-0.00000557,0.00444420,0.00240688,0.00041163,-
 0.06631565,-0.43125953,0.03545252,-0.00038256,-0.00737503,0.00070808,0
 .00022407,0.00226089,-0.00008374,0.00296292,0.00274342,-0.00028679,0.0
 0039034,-0.00051684,0.00013201,-0.00030392,-0.00046179,-0.00002859,-0.
 00002448,0.00037665,-0.00001146,-0.01000298,-0.02295322,0.00176549,-0.
 00112434,0.00071647,-0.00046073,0.00024178,-0.00000035,-0.00001662,-0.
 00060330,0.00000614,0.00006930,0.07114010,0.45211288,-0.00001920,-0.00
 000716,-0.00010033,-0.00059599,0.00040199,0.00612912,0.00472354,0.0354
 0167,-0.02132173,-0.00010797,0.00004786,0.00063073,-0.00014671,-0.0000
 6374,0.00129834,-0.00022177,-0.00039702,-0.00102419,-0.00003789,0.0001
 0018,0.00087829,0.00003328,-0.00001904,-0.00073374,0.00000118,-0.00000
 360,0.00025174,0.00109748,0.00251757,-0.00128525,0.00015159,-0.0004119
 8,-0.00422466,-0.00001784,-0.00001849,-0.00023409,0.00002344,0.0001191
 6,0.00090197,-0.00488658,-0.03758515,0.01738710,0.00395701,0.00084183,
 0.00005739,-0.00005808,0.00043902,-0.00004062,-0.00041992,-0.00148613,
 0.00011761,-0.00488952,0.00033354,-0.00023983,-0.00707684,-0.03220293,
 0.00270178,-0.00114878,0.00029966,-0.00004276,-0.08517403,-0.07948225,
 0.00619547,-0.00250573,0.00306721,-0.00040916,0.00665620,0.02156499,-0
 .00187234,0.00058828,-0.00068714,0.00007053,-0.00007850,0.00003449,-0.
 00000412,0.00112188,0.00038482,0.00006488,0.00006714,-0.00010067,0.000
 02465,-0.00044437,-0.00011555,0.00000435,0.08963288,0.00028573,0.00226
 920,-0.00051216,-0.00014208,0.00019836,-0.00001709,-0.00036487,-0.0001
 8122,0.00004821,-0.00001609,0.00228868,0.00041213,0.00094631,-0.002316
 52,0.00047746,0.00081493,0.00069533,-0.00006983,-0.07981675,-0.3087785
 3,0.02312014,0.00414339,-0.00138727,0.00065418,-0.01471987,-0.01999351
 ,0.00184683,0.00038437,-0.00035682,0.00004183,-0.00005068,-0.00000159,
 -0.00000236,-0.00001835,0.00086129,-0.00047597,-0.00009384,-0.00012516
 ,-0.00006350,-0.00005101,0.00000413,-0.00000938,0.08715349,0.32799995,
 0.00010749,-0.00050198,-0.00347325,0.00001131,-0.00000696,0.00003351,0
 .00001768,0.00002884,0.00042720,-0.00020791,0.00041874,0.00686674,-0.0
 0026110,-0.00011182,0.00284388,-0.00008865,-0.00007924,-0.00024265,0.0
 0622586,0.02312546,-0.03610147,-0.00050530,0.00063528,0.00504519,0.001
 36899,0.00249089,0.00340401,-0.00002470,0.00002306,0.00003572,0.000003
 45,-0.00000076,-0.00001759,0.00010006,-0.00046824,-0.00441789,0.000024
 05,-0.00006363,-0.00081086,-0.00000141,-0.00001071,-0.00009117,-0.0066
 1517,-0.02564591,0.02581321,0.00107671,0.00071983,0.00001455,0.0000246
 1,0.00024818,-0.00002247,-0.00117502,0.00151777,-0.00016712,-0.0030952
 7,-0.00317134,0.00009968,-0.00024765,-0.00065420,0.00006518,-0.0156735
 2,0.02479907,-0.00253437,-0.00048875,-0.00225861,0.00010037,-0.1872500
 9,0.14387313,-0.01554698,0.00894737,-0.01061724,0.00102137,0.00007211,
 -0.00071767,0.00006448,-0.00010275,0.00009758,-0.00000873,0.00003915,0
 .00011013,0.00000589,0.00109775,-0.00025290,0.00012137,-0.00001113,0.0
 0007016,-0.00000555,0.00054263,-0.00051617,0.00005356,0.19618174,0.000
 60849,0.00185016,-0.00045553,0.00009853,-0.00005256,0.00001074,-0.0000
 3484,0.00034550,0.00002411,-0.00244061,0.00086512,0.00052935,-0.001266
 34,-0.00009646,-0.00006954,-0.00807522,0.00880277,-0.00073070,-0.00352
 420,-0.00395991,0.00075862,0.14186721,-0.21915331,0.01891502,0.0250818
 8,-0.01841372,0.00252478,-0.00022618,0.00000723,-0.00000382,-0.0000066
 3,0.00002807,-0.00001071,0.00008443,0.00003454,-0.00007730,0.00048375,
 0.00095389,-0.00047643,-0.00000483,0.00000990,-0.00000480,0.00099413,-
 0.00100535,0.00011841,-0.15355260,0.22898483,0.00002443,-0.00045323,-0
 .00332621,-0.00000929,0.00001330,0.00004781,-0.00002835,0.00005178,0.0
 0061650,0.00003400,0.00051612,0.00722720,0.00012005,-0.00005870,-0.000
 61593,0.00040366,-0.00014702,0.00225240,0.00021327,0.00078115,0.005162
 45,-0.01536752,0.01895116,-0.03763044,-0.00216874,0.00189033,0.0046499
 0,0.00002118,-0.00001221,0.00001148,0.00000036,-0.00000888,-0.00009062
 ,0.00000804,-0.00007678,-0.00084040,0.00005549,-0.00048976,-0.00442887
 ,0.00000105,-0.00000360,-0.00004274,-0.00008143,0.00009164,0.00011297,
 0.01675517,-0.02093000,0.02743479,-0.00017326,-0.00003499,0.00003589,0
 .00260202,0.00134972,0.00347130,-0.00336953,-0.00262969,0.00147031,-0.
 00061178,0.00066721,0.00109366,-0.00000667,0.00013750,-0.00007027,-0.0
 0011957,-0.00023317,0.00015711,-0.00005645,-0.00002794,-0.00009573,-0.
 00011531,-0.00002120,-0.00009913,0.00014652,0.00006460,-0.00001439,-0.
 02051777,0.00705473,-0.02950890,-0.11175018,0.02751535,-0.11451887,-0.
 00004679,-0.00001258,0.00011104,0.00002194,0.00001893,0.00001523,0.000
 19764,-0.00041623,-0.00088875,-0.00002665,-0.00001683,-0.00000793,-0.0
 0003531,-0.00000436,-0.00002405,0.12605886,-0.00005267,-0.00001305,-0.
 00000201,0.00027228,-0.00006522,0.00184005,-0.00052812,-0.00075472,0.0
 0019108,-0.00029001,0.00042649,0.00018332,0.00005676,0.00002095,-0.000
 05701,-0.00000362,-0.00010225,0.00006617,0.00001436,0.00003257,0.00000
 152,-0.00006379,-0.00002706,-0.00003875,0.00003272,0.00005567,0.000002
 91,-0.00860118,0.00288645,-0.01449862,0.02811448,-0.06160490,0.0489624
 3,0.00003738,0.00002406,0.00001378,-0.00000213,0.00001711,0.00001727,-
 0.00049134,0.00026119,0.00037105,0.00000082,-0.00000287,0.00000300,-0.
 00000809,-0.00000233,-0.00000662,-0.02987927,0.06253964,-0.00008313,-0
 .00001584,0.00000167,0.00026080,-0.00082070,0.00072775,0.00067002,-0.0
 0050549,-0.00049916,0.00018913,-0.00002370,-0.00034579,-0.00000499,0.0
 0003160,-0.00000123,0.00003119,-0.00002088,0.00002434,-0.00003809,0.00
 001746,0.00001257,-0.00001404,-0.00003457,0.00001707,0.00007355,0.0000
 0995,-0.00000466,0.00277319,0.00156268,0.00302225,-0.11435737,0.048956
 50,-0.23550992,-0.00002016,-0.00000321,-0.00000455,0.00000705,-0.00001
 075,-0.00000413,0.00022553,-0.00015278,0.00010221,-0.00000762,-0.00000
 545,-0.00000100,-0.00000222,0.00000112,-0.00000138,0.12444040,-0.05459
 059,0.25653022,-0.00017455,-0.00004186,-0.00003518,0.00273725,0.000690
 69,-0.00358475,-0.00330448,-0.00287516,-0.00107751,-0.00056482,0.00046
 588,-0.00120158,-0.00000856,0.00014885,0.00004447,-0.00011427,-0.00025
 916,-0.00011819,-0.00006072,-0.00001041,0.00009632,-0.00011942,-0.0000
 0460,0.00009670,0.00014843,0.00006721,0.00000798,-0.02143008,0.0121379
 1,0.02697649,-0.11974466,0.04984584,0.11137799,-0.00004364,-0.00003231
 ,-0.00010823,0.00002274,0.00001571,-0.00001734,0.00017235,-0.00025845,
 0.00094918,-0.00002721,-0.00001541,0.00000988,-0.00003629,-0.00000013,
 0.00002323,0.00898847,-0.00576713,-0.01421297,0.13474757,-0.00003764,-
 0.00000971,0.00000264,0.00028987,-0.00021351,-0.00167203,-0.00064260,-
 0.00070494,-0.00018265,-0.00031061,0.00037591,-0.00032745,0.00005482,0
 .00002536,0.00005455,-0.00000792,-0.00010713,-0.00004337,0.00002080,0.
 00002855,-0.00000349,-0.00006211,-0.00001293,0.00004226,0.00001987,0.0
 0005179,-0.00001235,-0.00952731,0.00514957,0.01387971,0.05041181,-0.08
 375312,-0.07408066,0.00004068,0.00002133,-0.00001719,-0.00000256,0.000
 01531,-0.00002093,-0.00051011,0.00021637,-0.00040599,0.00000217,-0.000
 00242,-0.00000264,-0.00000793,-0.00000138,0.00000642,-0.00338346,0.002
 69381,0.00667412,-0.05419743,0.08724437,0.00008508,0.00001668,0.000000
 05,-0.00024364,0.00101423,0.00074361,-0.00066355,0.00043822,-0.0006186
 1,-0.00014494,-0.00008970,-0.00034051,-0.00000503,-0.00003095,-0.00000
 368,-0.00003519,0.00003508,0.00002306,0.00003226,-0.00002060,0.0000211
 5,0.00002065,0.00003994,0.00000715,-0.00007290,-0.00001795,-0.00000299
 ,-0.00198551,-0.00152416,0.00167303,0.11111659,-0.07409161,-0.20538486
 ,0.00001185,-0.00000252,-0.00000517,-0.00000572,0.00000781,-0.00000315
 ,-0.00013457,0.00012232,0.00017349,0.00000643,0.00000519,-0.00000089,0
 .00000243,-0.00000112,-0.00000143,0.01615852,-0.01140929,-0.02277127,-
 0.12087440,0.08268929,0.22314948,0.00000263,0.00001346,-0.00000096,-0.
 00631938,-0.00551367,0.00033541,0.00072296,0.00120917,-0.00008163,0.00
 012664,-0.00016057,0.00001594,0.00012969,-0.00001801,0.00000501,0.0001
 3218,-0.00000855,0.00000333,-0.00000568,0.00012931,-0.00001179,-0.0000
 1815,-0.00002775,0.00000246,-0.00002178,-0.00001181,0.00000045,0.00722
 017,-0.02999106,0.00284888,-0.05464675,0.02369409,-0.00219925,0.000286
 29,0.00007567,-0.00000278,-0.00002459,0.00004327,-0.00000497,-0.002687
 61,-0.00013574,-0.00005606,0.00001499,0.00000083,0.00000018,0.00001086
 ,0.00000448,-0.00000027,-0.00120265,0.01715339,0.00005831,-0.00120467,
 0.01784644,-0.00325682,0.05748185,-0.00015510,-0.00000691,-0.00000312,
 -0.00507110,0.00008028,0.00012006,0.00087370,0.00182359,-0.00021446,-0
 .00033079,0.00066163,-0.00006245,0.00008836,-0.00022272,0.00001772,-0.
 00000322,-0.00014971,0.00001084,-0.00008556,0.00023661,-0.00002203,-0.
 00009099,-0.00003884,0.00000076,0.00007647,0.00001281,0.00000107,0.010
 59999,-0.01606631,0.00134829,0.01952140,-0.30944892,0.02349486,0.00020
 208,0.00014541,-0.00000586,-0.00000786,0.00005377,-0.00000164,-0.00127
 691,0.00148641,-0.00004242,0.00002774,-0.00000321,0.00000095,-0.000010
 48,0.00000430,-0.00000013,-0.00015673,-0.00638959,-0.00107435,0.000080
 03,-0.01101984,0.00282433,-0.02430494,0.33883130,0.00001402,-0.0000001
 3,-0.00001075,0.00029607,0.00011055,0.00242053,-0.00005096,-0.00020815
 ,-0.00074111,0.00003093,-0.00005927,0.00003448,-0.00000488,0.00001551,
 -0.00004622,0.00000307,0.00001078,-0.00002727,0.00000739,-0.00001814,0
 .00000849,0.00000799,0.00000179,-0.00001314,-0.00000735,-0.00000046,0.
 00000972,-0.00076361,0.00063315,-0.00305893,-0.00182883,0.02356825,-0.
 05146504,-0.00001359,-0.00000774,0.00004332,-0.00000041,-0.00000066,0.
 00003741,0.00004526,-0.00002390,0.00124913,-0.00000224,0.00000047,0.00
 000182,0.00000103,0.00000013,0.00000491,-0.00171721,0.02894746,-0.0012
 9399,0.00164072,-0.02657687,0.00334118,0.00234479,-0.02639252,0.049498
 99,-0.06136383,-0.05961452,0.00430342,0.00034175,-0.00017430,0.0000219
 4,0.00064393,0.00003915,0.00001072,-0.00005659,0.00058724,-0.00005834,
 -0.00030383,-0.00038460,0.00003704,0.00104975,-0.00205129,0.00017523,0
 .00349464,-0.00189400,0.00025134,-0.00758754,0.00233294,-0.00038528,-0
 .01927025,-0.05116292,0.00428148,-0.00054512,0.00027988,-0.00003450,0.
 00008592,0.00001752,0.00000010,0.00002429,0.00006992,-0.00000512,-0.00
 044056,0.00000685,-0.00000556,0.00005469,-0.00000294,0.00000027,-0.000
 73138,0.00209292,-0.00021036,0.00012285,-0.00008695,0.00001973,0.00001
 647,0.00000514,0.00001141,0.00001656,0.00000319,-0.00001156,0.00000301
 ,0.00002391,-0.00000219,0.08444522,-0.12042437,-0.44641252,0.03738358,
 0.00002725,-0.00025665,0.00002029,0.00054109,-0.00003894,-0.00000173,-
 0.00019406,0.00045601,-0.00002049,-0.00041798,-0.00104849,0.00004706,0
 .00058526,-0.00069993,0.00020793,0.00466112,0.00446631,-0.00041732,-0.
 00133942,0.00265992,-0.00004979,0.00757573,-0.01090495,0.00083606,-0.0
 0025009,0.00037899,-0.00003817,0.00001190,-0.00000544,0.00000045,0.000
 18155,0.00005693,-0.00000492,-0.00019394,0.00003779,-0.00002122,0.0000
 4062,-0.00003801,0.00000927,-0.00106922,-0.00016249,0.00004726,0.00033
 140,0.00079875,-0.00011496,0.00000841,0.00000408,0.00000487,0.00000993
 ,0.00000260,-0.00000521,0.00000197,0.00000994,-0.00000027,0.10991286,0
 .45069610,0.00973241,0.03846089,-0.00709977,0.00000428,0.00001687,-0.0
 0003485,-0.00003408,-0.00001039,-0.00016401,0.00001150,-0.00000653,0.0
 0026654,0.00003979,0.00004738,-0.00044453,-0.00006018,0.00016143,0.001
 49664,-0.00033433,-0.00053355,-0.00108918,-0.00005680,0.00001533,0.002
 36734,-0.00096285,-0.00020494,-0.00304853,0.00001273,-0.00002892,0.000
 00293,0.00000051,0.00000048,-0.00000353,-0.00001521,-0.00000689,-0.000
 03416,0.00001240,-0.00001761,-0.00015915,-0.00000367,0.00000831,0.0000
 5578,0.00007218,0.00010358,0.00057252,-0.00001762,-0.00012231,-0.00054
 237,-0.00000822,0.00000285,-0.00000098,0.00000718,-0.00000336,0.000000
 35,-0.00000024,0.00000010,0.00000645,-0.00839978,-0.03788270,0.0078525
 2||0.00000336,-0.00000605,-0.00000043,0.00000702,-0.00000538,-0.000000
 38,-0.00000640,0.00000948,-0.00000476,0.00000407,0.00000146,0.00000578
 ,-0.00000437,-0.00000772,-0.00000603,-0.00000093,-0.00000302,0.0000032
 6,0.00000650,-0.00000087,0.,0.00000006,-0.00000177,-0.00000076,-0.0000
 0334,-0.00000651,0.00000205,-0.00000492,0.00001065,-0.00000007,-0.0000
 1770,0.00002127,0.00000369,0.00000396,0.00000303,0.00000216,-0.0000040
 8,0.00000039,0.00000045,-0.00000425,-0.00000337,-0.00000407,0.00000107
 ,-0.00000297,0.00000034,0.00000033,-0.00000251,0.00000002,0.00000563,-
 0.00000080,-0.00000430,0.00000290,0.00000045,0.00000362,0.00000912,0.0
 0000006,-0.00000156,0.00000196,-0.00000581,0.00000097|||@


 WE LEARN WISDOM FROM FAILURE MUCH MORE THAN FROM SUCCESS.
 WE DISCOVER WHAT WILL DO BY FINDING OUT WHAT WILL NOT DO...
 AND HE WHO NEVER MADE A MISTAKE NEVER MADE A DISCOVERY
 Job cpu time:       0 days  0 hours  5 minutes 31.0 seconds.
 File lengths (MBytes):  RWF=     43 Int=      0 D2E=      0 Chk=      2 Scr=      1
 Normal termination of Gaussian 09 at Sun Aug 23 01:20:18 2026.
